POSCAR_01:Al                            
   1.00000000000000     
    10.9063935957000009    0.0000000000000000    0.0000000000000000
     0.0000000000000000   10.9063935957000009    0.0000000000000000
     0.0000000000000000    0.0000000000000000   10.9063935957000009
   Al   Mg
     1   106
Direct
  0.9974748865360397  0.9990975228130381  0.9864928527237424
  0.9964438963726465  0.9980459398446655  0.3488892634541685
  0.9983629295565635  0.9998986995518990  0.6664346219300796
  0.9998820344494561  0.3309071109288837  0.0010526484144719
  0.0001772768571442  0.3301887779181243  0.3322360997537217
  0.9982652763151023  0.3372463177688658  0.6662211155407292
  0.9997682834778630  0.6687388606268740  0.0019418978253114
  0.9998273200748287  0.6691283022998391  0.3316430582666214
  0.9986159039947111  0.6644458945010996  0.6664387935315901
  0.3293377133777327  0.0014092988803469  0.0009816843777273
  0.3286614944568669  0.0017277841093701  0.3322715301910932
  0.3357020892596196  0.9998010746316552  0.6662308892807829
  0.3322036991472785  0.3337615697936513  0.0001322738380125
  0.3323849378478911  0.3339596340025324  0.3335199602883137
  0.3349312426032327  0.3365024976233926  0.6664282069595870
  0.3320109850557458  0.6676120227010571  0.0017290234321408
  0.3314354704727691  0.6682045186115175  0.3317409348494138
  0.3335056244067331  0.6673470534017696  0.6662221859772188
  0.6672406905188240  0.0012815214563062  0.0019318359095664
  0.6675734790234387  0.0013724790096248  0.3316510294065296
  0.6628736754107081  0.0002092927608786  0.6664194146672671
  0.6660083711103937  0.3336037715942055  0.0017772893786514
  0.6665933644687527  0.3330297042089327  0.3316842742137212
  0.6657731978651356  0.3351274175644008  0.6662471738262781
  0.6655536893615519  0.6671214288865102  0.0017202816485664
  0.6658914487993286  0.6675319690720869  0.3319991220128387
  0.6649951936488634  0.6665678210918884  0.6661870457815979
  0.0835048589413745  0.0852417852310410  0.1690237526729987
  0.9978533751199734  0.1691354690386504  0.5043863502639852
  0.9975831326946576  0.1701092178100652  0.8283219797742447
  0.0001920596362126  0.4986524471042770  0.1668928817773931
  0.9990267860144044  0.5010710972897670  0.4977148151145769
  0.9990389016753625  0.5010632852798764  0.8350941316390248
  0.0038758662319367  0.8428774971081765  0.1672897536114206
  0.9986485338033404  0.8305517832907796  0.5036936793361662
  0.9988990735495733  0.8303773046990557  0.8299449471703184
  0.3238067941027083  0.1634564405037935  0.1668666095888227
  0.3363623648928566  0.1681285242528148  0.5036471383498409
  0.3359149856012564  0.1682505916847248  0.8298196476902504
  0.3308829404477933  0.4992767582640099  0.1668973580770370
  0.3332621695667015  0.5018929017629432  0.4986023366637440
  0.3334105970274948  0.5016867586134452  0.8343754875357234
  0.3295192208353583  0.8368215409132418  0.1668337096826988
  0.3327993247267358  0.8339123574130625  0.4984024981492894
  0.3333973557540943  0.8333974390042798  0.8341660278236276
  0.6675572475675793  0.1666388860598076  0.1670210275069905
  0.6653360261859049  0.1677167425189481  0.4979096004650714
  0.6648704893606947  0.1680493912972167  0.8345274219927106
  0.6661557117477059  0.5003114180908312  0.1670669577039945
  0.6658879542456120  0.5006683189545811  0.4981948015474629
  0.6655803448252371  0.5007557125620039  0.8346692956855222
  0.6672285114942724  0.8356459510196004  0.1670142200009082
  0.6646828773850402  0.8334261023643990  0.4986601197279015
  0.6643239135119003  0.8330737873377956  0.8340987870752912
  0.1676081090747630  0.9993647940594670  0.5043842257331619
  0.1685109107788492  0.9991088039452194  0.8283190775358733
  0.1620203612053857  0.3253267496505998  0.1669050825557079
  0.1666030515627241  0.3379275064592520  0.5036487173832072
  0.1667428907124062  0.3375130914098250  0.8298063549871344
  0.1651354562370813  0.6690762092778755  0.1669988509671541
  0.1660917410088558  0.6668723793934035  0.4978751493781886
  0.1664735457768955  0.6664084934516410  0.8345911385030291
  0.4971530312336512  0.0016757140592816  0.1668708851478442
  0.4995504357224121  0.0006345560151075  0.4977266780218699
  0.4995321155935031  0.0006042102800379  0.8350838594368781
  0.4976743339290408  0.3324107398845584  0.1669038160494196
  0.5003172445025470  0.3348699555930992  0.4985789737024504
  0.5001005475738012  0.3349773210659777  0.8343874974556442
  0.4986421928388722  0.6678446404693617  0.1670207226478340
  0.4990796240296191  0.6674663455386565  0.4982451812408328
  0.4991643266174535  0.6671434426766893  0.8346379103201187
  0.8413690429533318  0.0053935931897300  0.1673113089025620
  0.8289694055563643  0.0001697591796628  0.5037046848617379
  0.8288032660367790  0.0003796059782673  0.8299268963919673
  0.8352201475635397  0.3311025087857900  0.1668500231442067
  0.8323368225700705  0.3343677621789780  0.4983811901750101
  0.8318411960219763  0.3349840643358846  0.8341584207317183
  0.8341093169455078  0.6688059582856809  0.1670331330204746
  0.8318536313914748  0.6662522306692935  0.4986219271771404
  0.8315299156015854  0.6659131865476979  0.8341224053889036
  0.1687678328733924  0.1703671993150309  0.9860889488313092
  0.1695094027571358  0.1710725601024805  0.3492894715565313
  0.1671464492577357  0.1686658619315011  0.6664612701861259
  0.1655122838399450  0.4989597921460671  0.0018694685500904
  0.1653475882376085  0.4987925554676877  0.3315306112457037
  0.1665812990666282  0.5033811259869196  0.6663667572136518
  0.1664098969864227  0.8357151789432180  0.0002560893569381
  0.1651223918035001  0.8375845020162629  0.3326613076164975
  0.1672504646286157  0.8311046361797594  0.6662664251075512
  0.4974447053418842  0.1670033006630476  0.0018443433641124
  0.4972338110178853  0.1668831916176927  0.3315433453688001
  0.5017953388899343  0.1681989489462552  0.6663682701539244
  0.4988399925580680  0.5004261910638306  0.0018335463524366
  0.4989455870359052  0.5005932214188178  0.3318042472010845
  0.4998663538819770  0.5014636811705486  0.6663178004535908
  0.4984167319239745  0.8349875055699059  0.0018434783769763
  0.4982562131641970  0.8353125190847663  0.3316570070666103
  0.4990125970458905  0.8332102118730305  0.6661496575705073
  0.8341024078185484  0.1680157968411962  0.0002511846899580
  0.8359941474806263  0.1666845548091729  0.3326600354458620
  0.8295895850841930  0.1687883918310575  0.6662792965421076
  0.8334299684124247  0.4999897855171653  0.0019263211194200
  0.8337283751392732  0.4998403442978017  0.3315841332197920
  0.8316216122900997  0.5006060391558123  0.6661572905272024
  0.8320031140061985  0.8335306453737132  0.9998910018645546
  0.8328665703260327  0.8344574161550966  0.3334856592389173
  0.8301640859284518  0.8317134246148257  0.6666461376289803
 
  0.00000000E+00  0.00000000E+00  0.00000000E+00
  0.00000000E+00  0.00000000E+00  0.00000000E+00
  0.00000000E+00  0.00000000E+00  0.00000000E+00
  0.00000000E+00  0.00000000E+00  0.00000000E+00
  0.00000000E+00  0.00000000E+00  0.00000000E+00
  0.00000000E+00  0.00000000E+00  0.00000000E+00
  0.00000000E+00  0.00000000E+00  0.00000000E+00
  0.00000000E+00  0.00000000E+00  0.00000000E+00
  0.00000000E+00  0.00000000E+00  0.00000000E+00
  0.00000000E+00  0.00000000E+00  0.00000000E+00
  0.00000000E+00  0.00000000E+00  0.00000000E+00
  0.00000000E+00  0.00000000E+00  0.00000000E+00
  0.00000000E+00  0.00000000E+00  0.00000000E+00
  0.00000000E+00  0.00000000E+00  0.00000000E+00
  0.00000000E+00  0.00000000E+00  0.00000000E+00
  0.00000000E+00  0.00000000E+00  0.00000000E+00
  0.00000000E+00  0.00000000E+00  0.00000000E+00
  0.00000000E+00  0.00000000E+00  0.00000000E+00
  0.00000000E+00  0.00000000E+00  0.00000000E+00
  0.00000000E+00  0.00000000E+00  0.00000000E+00
  0.00000000E+00  0.00000000E+00  0.00000000E+00
  0.00000000E+00  0.00000000E+00  0.00000000E+00
  0.00000000E+00  0.00000000E+00  0.00000000E+00
  0.00000000E+00  0.00000000E+00  0.00000000E+00
  0.00000000E+00  0.00000000E+00  0.00000000E+00
  0.00000000E+00  0.00000000E+00  0.00000000E+00
  0.00000000E+00  0.00000000E+00  0.00000000E+00
  0.00000000E+00  0.00000000E+00  0.00000000E+00
  0.00000000E+00  0.00000000E+00  0.00000000E+00
  0.00000000E+00  0.00000000E+00  0.00000000E+00
  0.00000000E+00  0.00000000E+00  0.00000000E+00
  0.00000000E+00  0.00000000E+00  0.00000000E+00
  0.00000000E+00  0.00000000E+00  0.00000000E+00
  0.00000000E+00  0.00000000E+00  0.00000000E+00
  0.00000000E+00  0.00000000E+00  0.00000000E+00
  0.00000000E+00  0.00000000E+00  0.00000000E+00
  0.00000000E+00  0.00000000E+00  0.00000000E+00
  0.00000000E+00  0.00000000E+00  0.00000000E+00
  0.00000000E+00  0.00000000E+00  0.00000000E+00
  0.00000000E+00  0.00000000E+00  0.00000000E+00
  0.00000000E+00  0.00000000E+00  0.00000000E+00
  0.00000000E+00  0.00000000E+00  0.00000000E+00
  0.00000000E+00  0.00000000E+00  0.00000000E+00
  0.00000000E+00  0.00000000E+00  0.00000000E+00
  0.00000000E+00  0.00000000E+00  0.00000000E+00
  0.00000000E+00  0.00000000E+00  0.00000000E+00
  0.00000000E+00  0.00000000E+00  0.00000000E+00
  0.00000000E+00  0.00000000E+00  0.00000000E+00
  0.00000000E+00  0.00000000E+00  0.00000000E+00
  0.00000000E+00  0.00000000E+00  0.00000000E+00
  0.00000000E+00  0.00000000E+00  0.00000000E+00
  0.00000000E+00  0.00000000E+00  0.00000000E+00
  0.00000000E+00  0.00000000E+00  0.00000000E+00
  0.00000000E+00  0.00000000E+00  0.00000000E+00
  0.00000000E+00  0.00000000E+00  0.00000000E+00
  0.00000000E+00  0.00000000E+00  0.00000000E+00
  0.00000000E+00  0.00000000E+00  0.00000000E+00
  0.00000000E+00  0.00000000E+00  0.00000000E+00
  0.00000000E+00  0.00000000E+00  0.00000000E+00
  0.00000000E+00  0.00000000E+00  0.00000000E+00
  0.00000000E+00  0.00000000E+00  0.00000000E+00
  0.00000000E+00  0.00000000E+00  0.00000000E+00
  0.00000000E+00  0.00000000E+00  0.00000000E+00
  0.00000000E+00  0.00000000E+00  0.00000000E+00
  0.00000000E+00  0.00000000E+00  0.00000000E+00
  0.00000000E+00  0.00000000E+00  0.00000000E+00
  0.00000000E+00  0.00000000E+00  0.00000000E+00
  0.00000000E+00  0.00000000E+00  0.00000000E+00
  0.00000000E+00  0.00000000E+00  0.00000000E+00
  0.00000000E+00  0.00000000E+00  0.00000000E+00
  0.00000000E+00  0.00000000E+00  0.00000000E+00
  0.00000000E+00  0.00000000E+00  0.00000000E+00
  0.00000000E+00  0.00000000E+00  0.00000000E+00
  0.00000000E+00  0.00000000E+00  0.00000000E+00
  0.00000000E+00  0.00000000E+00  0.00000000E+00
  0.00000000E+00  0.00000000E+00  0.00000000E+00
  0.00000000E+00  0.00000000E+00  0.00000000E+00
  0.00000000E+00  0.00000000E+00  0.00000000E+00
  0.00000000E+00  0.00000000E+00  0.00000000E+00
  0.00000000E+00  0.00000000E+00  0.00000000E+00
  0.00000000E+00  0.00000000E+00  0.00000000E+00
  0.00000000E+00  0.00000000E+00  0.00000000E+00
  0.00000000E+00  0.00000000E+00  0.00000000E+00
  0.00000000E+00  0.00000000E+00  0.00000000E+00
  0.00000000E+00  0.00000000E+00  0.00000000E+00
  0.00000000E+00  0.00000000E+00  0.00000000E+00
  0.00000000E+00  0.00000000E+00  0.00000000E+00
  0.00000000E+00  0.00000000E+00  0.00000000E+00
  0.00000000E+00  0.00000000E+00  0.00000000E+00
  0.00000000E+00  0.00000000E+00  0.00000000E+00
  0.00000000E+00  0.00000000E+00  0.00000000E+00
  0.00000000E+00  0.00000000E+00  0.00000000E+00
  0.00000000E+00  0.00000000E+00  0.00000000E+00
  0.00000000E+00  0.00000000E+00  0.00000000E+00
  0.00000000E+00  0.00000000E+00  0.00000000E+00
  0.00000000E+00  0.00000000E+00  0.00000000E+00
  0.00000000E+00  0.00000000E+00  0.00000000E+00
  0.00000000E+00  0.00000000E+00  0.00000000E+00
  0.00000000E+00  0.00000000E+00  0.00000000E+00
  0.00000000E+00  0.00000000E+00  0.00000000E+00
  0.00000000E+00  0.00000000E+00  0.00000000E+00
  0.00000000E+00  0.00000000E+00  0.00000000E+00
  0.00000000E+00  0.00000000E+00  0.00000000E+00
  0.00000000E+00  0.00000000E+00  0.00000000E+00
  0.00000000E+00  0.00000000E+00  0.00000000E+00
  0.00000000E+00  0.00000000E+00  0.00000000E+00
  0.00000000E+00  0.00000000E+00  0.00000000E+00
