System is 
MAGMOM = 1*5 106*5
NELECT = 1169
ENCUT = 341
LCHARG = False
PREC = Accurate
ISIF = 2
IBRION = -1
LREAL = Auto
ISPIN = 2
ISMEAR = -5
LWAVE = False
NPAR = 4
SIGMA = 0.2
NSW = 0
