Al                                      
   1.00000000000000     
    10.9063935956658007    0.0000000000000000    0.0000000000000000
     0.0000000000000000   10.9063935956658007    0.0000000000000000
     0.0000000000000000    0.0000000000000000   10.9063935956658025
   Al   Mg
     1   106
Direct
  0.0006474454144083  0.0006474454144083  0.0007520882775012
  0.0019176500598519  0.0019176500598519  0.3338799336532858
  0.0005443947715165  0.0005443947715165  0.6651737264229354
  0.0005400208324602  0.3333600566330333  0.0008607997452614
  0.0019202168267469  0.3319300188865029  0.3337721165387606
  0.0005783925599303  0.3331585476937704  0.6654123910339109
  0.0002513827072335  0.6659661313177807  0.0004428873445264
  0.0004572489616379  0.6662378388825090  0.3337706363126856
  0.0002776383837073  0.6662423191182469  0.6658124858385506
  0.3333600566330333  0.0005400208324602  0.0008607997452614
  0.3319300188865029  0.0019202168267469  0.3337721165387606
  0.3331585476937704  0.0005783925599303  0.6654123910339109
  0.3332130659310124  0.3332130659310124  0.0008820349488801
  0.3315336957238557  0.3315336957238557  0.3335921189462709
  0.3330286783703968  0.3330286783703968  0.6654984570509654
  0.3335939325526383  0.6661996773768308  0.0004212636738501
  0.3331840162698256  0.6663755592596274  0.3336571881455939
  0.3333907537760297  0.6663720651497513  0.6659270764347482
  0.6659661313177807  0.0002513827072335  0.0004428873445264
  0.6662378388825090  0.0004572489616379  0.3337706363126856
  0.6662423191182469  0.0002776383837073  0.6658124858385506
  0.6661996773768308  0.3335939325526383  0.0004212636738501
  0.6663755592596274  0.3331840162698256  0.3336571881455939
  0.6663720651497513  0.3333907537760297  0.6659270764347482
  0.6662365718170662  0.6662365718170662  0.0001833222227461
  0.6663268861185401  0.6663268861185401  0.3336742838310016
  0.6663877590682077  0.6663877590682077  0.6662298614085458
  0.0021217907998192  0.1676156626761909  0.1696178631835963
  0.0020510807450975  0.1669147170861152  0.4979733404954558
  0.0004201555666086  0.1675468360497661  0.8325503112736499
  0.0005760014964338  0.4991552939313664  0.1675127616425698
  0.0006035567573974  0.4991774475492008  0.4994518872628504
  0.0002612097000920  0.4995669516605119  0.8330175920590790
  0.0006063492168664  0.8332872335678161  0.1681148987288168
  0.0005798593512480  0.8338727408301807  0.4993397909036617
  0.0002733269257504  0.8328608732508087  0.8324691023133539
  0.3317202063960991  0.1670451719330117  0.1690609055373002
  0.3314745311368270  0.1668487109937473  0.4979158605795035
  0.3332819811751335  0.1670900550084440  0.8329781925712751
  0.3330533556144530  0.4991719303774715  0.1674640527381754
  0.3328890377339917  0.4990968971340592  0.4994031824016645
  0.3334119661109938  0.4995581191555658  0.8331024249716563
  0.3330961348626857  0.8337741054371293  0.1676365518172744
  0.3330455661883818  0.8339911607816362  0.4994226323599946
  0.3335285349749810  0.8333448941424351  0.8329122772723352
  0.6663402577309157  0.1670515091783642  0.1675054666936262
  0.6664021950895034  0.1669185616419426  0.4995507476007859
  0.6661544746117158  0.1670904678193637  0.8328335304855088
  0.6663785946914302  0.4995866284784256  0.1671771069745063
  0.6664690632523929  0.4995391250433556  0.4997638185081854
  0.6663791350527930  0.4998761540592938  0.8330978298265279
  0.6662837950515978  0.8333803562463586  0.1673013415972164
  0.6663849773862296  0.8335574059257382  0.4998348466977589
  0.6663328266137825  0.8331376568529265  0.8329877050388461
  0.1669147170861152  0.0020510807450975  0.4979733404954558
  0.1675468360497661  0.0004201555666086  0.8325503112736499
  0.1670451719330117  0.3317202063960991  0.1690609055373002
  0.1668487109937473  0.3314745311368270  0.4979158605795035
  0.1670900550084440  0.3332819811751335  0.8329781925712751
  0.1670515091783642  0.6663402577309157  0.1675054666936262
  0.1669185616419426  0.6664021950895034  0.4995507476007859
  0.1670904678193637  0.6661544746117158  0.8328335304855088
  0.4991552939313664  0.0005760014964338  0.1675127616425698
  0.4991774475492008  0.0006035567573974  0.4994518872628504
  0.4995669516605119  0.0002612097000920  0.8330175920590790
  0.4991719303774715  0.3330533556144530  0.1674640527381754
  0.4990968971340592  0.3328890377339917  0.4994031824016645
  0.4995581191555658  0.3334119661109938  0.8331024249716563
  0.4995866284784256  0.6663785946914302  0.1671771069745063
  0.4995391250433556  0.6664690632523929  0.4997638185081854
  0.4998761540592938  0.6663791350527930  0.8330978298265279
  0.8332872335678161  0.0006063492168664  0.1681148987288168
  0.8338727408301807  0.0005798593512480  0.4993397909036617
  0.8328608732508087  0.0002733269257504  0.8324691023133539
  0.8337741054371293  0.3330961348626857  0.1676365518172744
  0.8339911607816362  0.3330455661883818  0.4994226323599946
  0.8333448941424351  0.3335285349749810  0.8329122772723352
  0.8333803562463586  0.6662837950515978  0.1673013415972164
  0.8335574059257382  0.6663849773862296  0.4998348466977589
  0.8331376568529265  0.6663328266137825  0.8329877050388461
  0.1675576011456883  0.1675576011456883  0.0012861159501938
  0.1676156626761909  0.0021217907998192  0.1696178631835963
  0.1670050611055416  0.1670050611055416  0.6651886011179045
  0.1670178175895600  0.4996933099807777  0.0003652749367049
  0.1668756336121007  0.4987956691483930  0.3335977718726681
  0.1669110323769800  0.4995777279118556  0.6659611746488139
  0.1675989539438660  0.8325788827054623  0.0001885336404968
  0.1670723084864960  0.8342571488528350  0.3336979357273009
  0.1670651965820724  0.8333281545639082  0.6659388059984224
  0.4996933099807777  0.1670178175895600  0.0003652749367049
  0.4987956691483930  0.1668756336121007  0.3335977718726681
  0.4995777279118556  0.1669110323769800  0.6659611746488139
  0.4996771169775442  0.4996771169775442  0.0003432841508442
  0.4996110784719932  0.4996110784719932  0.3335274364689695
  0.4996815727618582  0.4996815727618582  0.6661656289708162
  0.4996731391080331  0.8333516227910067  0.0003418144852745
  0.4997258269914369  0.8334368960994354  0.3336747112730976
  0.4996890774050868  0.8334424455399443  0.6660517049502914
  0.8325788827054623  0.1675989539438660  0.0001885336404968
  0.8342571488528350  0.1670723084864960  0.3336979357273009
  0.8333281545639082  0.1670651965820724  0.6659388059984224
  0.8333516227910067  0.4996731391080331  0.0003418144852745
  0.8334368960994354  0.4997258269914369  0.3336747112730976
  0.8334424455399443  0.4996890774050868  0.6660517049502914
  0.8327971551206517  0.8327971551206517  0.0003493290914633
  0.8331685993745950  0.8331685993745950  0.3337356409242531
  0.8333177269896765  0.8333177269896765  0.6660400637921811
 
  0.00000000E+00  0.00000000E+00  0.00000000E+00
  0.00000000E+00  0.00000000E+00  0.00000000E+00
  0.00000000E+00  0.00000000E+00  0.00000000E+00
  0.00000000E+00  0.00000000E+00  0.00000000E+00
  0.00000000E+00  0.00000000E+00  0.00000000E+00
  0.00000000E+00  0.00000000E+00  0.00000000E+00
  0.00000000E+00  0.00000000E+00  0.00000000E+00
  0.00000000E+00  0.00000000E+00  0.00000000E+00
  0.00000000E+00  0.00000000E+00  0.00000000E+00
  0.00000000E+00  0.00000000E+00  0.00000000E+00
  0.00000000E+00  0.00000000E+00  0.00000000E+00
  0.00000000E+00  0.00000000E+00  0.00000000E+00
  0.00000000E+00  0.00000000E+00  0.00000000E+00
  0.00000000E+00  0.00000000E+00  0.00000000E+00
  0.00000000E+00  0.00000000E+00  0.00000000E+00
  0.00000000E+00  0.00000000E+00  0.00000000E+00
  0.00000000E+00  0.00000000E+00  0.00000000E+00
  0.00000000E+00  0.00000000E+00  0.00000000E+00
  0.00000000E+00  0.00000000E+00  0.00000000E+00
  0.00000000E+00  0.00000000E+00  0.00000000E+00
  0.00000000E+00  0.00000000E+00  0.00000000E+00
  0.00000000E+00  0.00000000E+00  0.00000000E+00
  0.00000000E+00  0.00000000E+00  0.00000000E+00
  0.00000000E+00  0.00000000E+00  0.00000000E+00
  0.00000000E+00  0.00000000E+00  0.00000000E+00
  0.00000000E+00  0.00000000E+00  0.00000000E+00
  0.00000000E+00  0.00000000E+00  0.00000000E+00
  0.00000000E+00  0.00000000E+00  0.00000000E+00
  0.00000000E+00  0.00000000E+00  0.00000000E+00
  0.00000000E+00  0.00000000E+00  0.00000000E+00
  0.00000000E+00  0.00000000E+00  0.00000000E+00
  0.00000000E+00  0.00000000E+00  0.00000000E+00
  0.00000000E+00  0.00000000E+00  0.00000000E+00
  0.00000000E+00  0.00000000E+00  0.00000000E+00
  0.00000000E+00  0.00000000E+00  0.00000000E+00
  0.00000000E+00  0.00000000E+00  0.00000000E+00
  0.00000000E+00  0.00000000E+00  0.00000000E+00
  0.00000000E+00  0.00000000E+00  0.00000000E+00
  0.00000000E+00  0.00000000E+00  0.00000000E+00
  0.00000000E+00  0.00000000E+00  0.00000000E+00
  0.00000000E+00  0.00000000E+00  0.00000000E+00
  0.00000000E+00  0.00000000E+00  0.00000000E+00
  0.00000000E+00  0.00000000E+00  0.00000000E+00
  0.00000000E+00  0.00000000E+00  0.00000000E+00
  0.00000000E+00  0.00000000E+00  0.00000000E+00
  0.00000000E+00  0.00000000E+00  0.00000000E+00
  0.00000000E+00  0.00000000E+00  0.00000000E+00
  0.00000000E+00  0.00000000E+00  0.00000000E+00
  0.00000000E+00  0.00000000E+00  0.00000000E+00
  0.00000000E+00  0.00000000E+00  0.00000000E+00
  0.00000000E+00  0.00000000E+00  0.00000000E+00
  0.00000000E+00  0.00000000E+00  0.00000000E+00
  0.00000000E+00  0.00000000E+00  0.00000000E+00
  0.00000000E+00  0.00000000E+00  0.00000000E+00
  0.00000000E+00  0.00000000E+00  0.00000000E+00
  0.00000000E+00  0.00000000E+00  0.00000000E+00
  0.00000000E+00  0.00000000E+00  0.00000000E+00
  0.00000000E+00  0.00000000E+00  0.00000000E+00
  0.00000000E+00  0.00000000E+00  0.00000000E+00
  0.00000000E+00  0.00000000E+00  0.00000000E+00
  0.00000000E+00  0.00000000E+00  0.00000000E+00
  0.00000000E+00  0.00000000E+00  0.00000000E+00
  0.00000000E+00  0.00000000E+00  0.00000000E+00
  0.00000000E+00  0.00000000E+00  0.00000000E+00
  0.00000000E+00  0.00000000E+00  0.00000000E+00
  0.00000000E+00  0.00000000E+00  0.00000000E+00
  0.00000000E+00  0.00000000E+00  0.00000000E+00
  0.00000000E+00  0.00000000E+00  0.00000000E+00
  0.00000000E+00  0.00000000E+00  0.00000000E+00
  0.00000000E+00  0.00000000E+00  0.00000000E+00
  0.00000000E+00  0.00000000E+00  0.00000000E+00
  0.00000000E+00  0.00000000E+00  0.00000000E+00
  0.00000000E+00  0.00000000E+00  0.00000000E+00
  0.00000000E+00  0.00000000E+00  0.00000000E+00
  0.00000000E+00  0.00000000E+00  0.00000000E+00
  0.00000000E+00  0.00000000E+00  0.00000000E+00
  0.00000000E+00  0.00000000E+00  0.00000000E+00
  0.00000000E+00  0.00000000E+00  0.00000000E+00
  0.00000000E+00  0.00000000E+00  0.00000000E+00
  0.00000000E+00  0.00000000E+00  0.00000000E+00
  0.00000000E+00  0.00000000E+00  0.00000000E+00
  0.00000000E+00  0.00000000E+00  0.00000000E+00
  0.00000000E+00  0.00000000E+00  0.00000000E+00
  0.00000000E+00  0.00000000E+00  0.00000000E+00
  0.00000000E+00  0.00000000E+00  0.00000000E+00
  0.00000000E+00  0.00000000E+00  0.00000000E+00
  0.00000000E+00  0.00000000E+00  0.00000000E+00
  0.00000000E+00  0.00000000E+00  0.00000000E+00
  0.00000000E+00  0.00000000E+00  0.00000000E+00
  0.00000000E+00  0.00000000E+00  0.00000000E+00
  0.00000000E+00  0.00000000E+00  0.00000000E+00
  0.00000000E+00  0.00000000E+00  0.00000000E+00
  0.00000000E+00  0.00000000E+00  0.00000000E+00
  0.00000000E+00  0.00000000E+00  0.00000000E+00
  0.00000000E+00  0.00000000E+00  0.00000000E+00
  0.00000000E+00  0.00000000E+00  0.00000000E+00
  0.00000000E+00  0.00000000E+00  0.00000000E+00
  0.00000000E+00  0.00000000E+00  0.00000000E+00
  0.00000000E+00  0.00000000E+00  0.00000000E+00
  0.00000000E+00  0.00000000E+00  0.00000000E+00
  0.00000000E+00  0.00000000E+00  0.00000000E+00
  0.00000000E+00  0.00000000E+00  0.00000000E+00
  0.00000000E+00  0.00000000E+00  0.00000000E+00
  0.00000000E+00  0.00000000E+00  0.00000000E+00
  0.00000000E+00  0.00000000E+00  0.00000000E+00
  0.00000000E+00  0.00000000E+00  0.00000000E+00
  0.00000000E+00  0.00000000E+00  0.00000000E+00
