ENCUT = 409.821
IMAGES = 3
MAGMOM = 2*5 2*1 1*5 
