ENCUT = 409.821
IMAGES = 3
MAGMOM = 1*5 2*1 2*5 
NEBLINES = 10-11, Mg, 0 0 0.1, 0.75 0 0
