Al30 Cu1                                
   1.00000000000000     
     8.0870400000000000    0.0000000000000000    0.0000000000000000
     0.0000000000000000    8.0870400000000000    0.0000000000000000
     0.0000000000000000    0.0000000000000000    8.0870400000000000
   Al   Cu
  30   1
Direct
  0.9994609999999966  0.9978940000000023  0.9982469999999992
  0.2543900000000008  0.0102919999999997  0.2543620000000004
  0.2528799999999976  0.2500000000000000  0.0038899999999984
  0.0052239999999983  0.2500000000000000  0.2532110000000003
  0.4995240000000010  0.0043050000000022  0.0033349999999999
  0.7466650000000001  0.0043050000000022  0.2504759999999990
  0.7474539999999976  0.2500000000000000  0.0025460000000024
  0.9994609999999966  0.5021059999999977  0.9982469999999992
  0.2543900000000008  0.4897080000000003  0.2543620000000004
  0.2481510000000000  0.7500000000000000  0.9971889999999988
  0.9997759999999971  0.7500000000000000  0.2511409999999970
  0.4995240000000010  0.4956949999999978  0.0033349999999999
  0.7466650000000001  0.4956949999999978  0.2504759999999990
  0.7518150000000006  0.7500000000000000  0.9981849999999994
  0.5000029999999995  0.7500000000000000  0.2499970000000005
  0.0041020000000032  0.0035319999999999  0.5007889999999975
  0.2492110000000025  0.0035319999999999  0.7458979999999968
  0.0007370000000009  0.2500000000000000  0.7492629999999991
  0.4956379999999996  0.0102919999999997  0.4956099999999992
  0.7517530000000008  0.9978940000000023  0.7505390000000034
  0.7461100000000016  0.2500000000000000  0.4971200000000024
  0.4967889999999997  0.2500000000000000  0.7447760000000017
  0.0041020000000032  0.4964680000000001  0.5007889999999975
  0.2492110000000025  0.4964680000000001  0.7458979999999968
  0.2487319999999968  0.7500000000000000  0.5012680000000032
  0.9989119999999971  0.7500000000000000  0.7510880000000029
  0.4956379999999996  0.4897080000000003  0.4956099999999992
  0.7517530000000008  0.5021059999999977  0.7505390000000034
  0.7528110000000012  0.7500000000000000  0.5018490000000000
  0.4988590000000030  0.7500000000000000  0.7502240000000029
  0.2502619999999993  0.2500000000000000  0.4997380000000007
 
  0.00000000E+00  0.00000000E+00  0.00000000E+00
  0.00000000E+00  0.00000000E+00  0.00000000E+00
  0.00000000E+00  0.00000000E+00  0.00000000E+00
  0.00000000E+00  0.00000000E+00  0.00000000E+00
  0.00000000E+00  0.00000000E+00  0.00000000E+00
  0.00000000E+00  0.00000000E+00  0.00000000E+00
  0.00000000E+00  0.00000000E+00  0.00000000E+00
  0.00000000E+00  0.00000000E+00  0.00000000E+00
  0.00000000E+00  0.00000000E+00  0.00000000E+00
  0.00000000E+00  0.00000000E+00  0.00000000E+00
  0.00000000E+00  0.00000000E+00  0.00000000E+00
  0.00000000E+00  0.00000000E+00  0.00000000E+00
  0.00000000E+00  0.00000000E+00  0.00000000E+00
  0.00000000E+00  0.00000000E+00  0.00000000E+00
  0.00000000E+00  0.00000000E+00  0.00000000E+00
  0.00000000E+00  0.00000000E+00  0.00000000E+00
  0.00000000E+00  0.00000000E+00  0.00000000E+00
  0.00000000E+00  0.00000000E+00  0.00000000E+00
  0.00000000E+00  0.00000000E+00  0.00000000E+00
  0.00000000E+00  0.00000000E+00  0.00000000E+00
  0.00000000E+00  0.00000000E+00  0.00000000E+00
  0.00000000E+00  0.00000000E+00  0.00000000E+00
  0.00000000E+00  0.00000000E+00  0.00000000E+00
  0.00000000E+00  0.00000000E+00  0.00000000E+00
  0.00000000E+00  0.00000000E+00  0.00000000E+00
  0.00000000E+00  0.00000000E+00  0.00000000E+00
  0.00000000E+00  0.00000000E+00  0.00000000E+00
  0.00000000E+00  0.00000000E+00  0.00000000E+00
  0.00000000E+00  0.00000000E+00  0.00000000E+00
  0.00000000E+00  0.00000000E+00  0.00000000E+00
  0.00000000E+00  0.00000000E+00  0.00000000E+00
