# Test file
$MaSt
program VASP
system_name MgAl
$end

$structure
coord_type fractional
begin coordinates
Mg 0.000000 0.000000 0.000000
Al 0.500000 0.500000 0.500000
end

begin lattice
3.0 0.0 0.0
0.0 3.0 0.0
0.0 0.0 3.0
end
$end

$ingredients
begin ingredients_global
mast_kpoints 3x3x3
xc pbe
end

begin optimize
encut 300
ibrion 2
end
$end

$recipe
recipe_file recipe_test.txt
$end
