Al30 Cu1
1.0
8.087040 0.000000 0.000000
0.000000 8.087040 0.000000
0.000000 0.000000 8.087040
Al Cu
30 1
direct
0.998880 0.997902 0.998873 Al
0.254376 0.010319 0.254375 Al
0.253032 0.250000 0.004577 Al
0.004582 0.250000 0.253033 Al
0.500153 0.003920 0.003727 Al
0.746273 0.003920 0.249847 Al
0.748347 0.250000 0.001654 Al
0.998880 0.502098 0.998873 Al
0.254376 0.489681 0.254375 Al
0.249619 0.750000 0.998511 Al
0.998506 0.750000 0.249630 Al
0.500153 0.496080 0.003727 Al
0.746273 0.496080 0.249847 Al
0.751447 0.750000 0.998553 Al
0.500633 0.750000 0.249366 Al
0.003730 0.003927 0.500168 Al
0.249832 0.003927 0.746270 Al
0.001654 0.250000 0.748346 Al
0.495625 0.010319 0.495624 Al
0.751127 0.997902 0.751120 Al
0.745423 0.250000 0.496968 Al
0.496967 0.250000 0.745418 Al
0.003730 0.496074 0.500168 Al
0.249832 0.496074 0.746270 Al
0.249350 0.750000 0.500650 Al
0.998555 0.750000 0.751445 Al
0.495625 0.489681 0.495624 Al
0.751127 0.502098 0.751120 Al
0.751489 0.750000 0.500381 Al
0.500371 0.750000 0.751494 Al
0.375040 0.250000 0.374960 Cu

0.000000 0.000000 0.000000
0.000000 0.000000 0.000000
0.000000 0.000000 0.000000
0.000000 0.000000 0.000000
0.000000 0.000000 0.000000
0.000000 0.000000 0.000000
0.000000 0.000000 0.000000
0.000000 0.000000 0.000000
0.000000 0.000000 0.000000
0.000000 0.000000 0.000000
0.000000 0.000000 0.000000
0.000000 0.000000 0.000000
0.000000 0.000000 0.000000
0.000000 0.000000 0.000000
0.000000 0.000000 0.000000
0.000000 0.000000 0.000000
0.000000 0.000000 0.000000
0.000000 0.000000 0.000000
0.000000 0.000000 0.000000
0.000000 0.000000 0.000000
0.000000 0.000000 0.000000
0.000000 0.000000 0.000000
0.000000 0.000000 0.000000
0.000000 0.000000 0.000000
0.000000 0.000000 0.000000
0.000000 0.000000 0.000000
0.000000 0.000000 0.000000
0.000000 0.000000 0.000000
0.000000 0.000000 0.000000
0.000000 0.000000 0.000000
0.000000 0.000000 0.000000
