Al31                                    
   1.00000000000000     
     8.0870519999999999    0.0000000000000000    0.0000000000000000
     0.0000000000000000    8.0870519999999999    0.0000000000000000
     0.0000000000000000    0.0000000000000000    8.0870519999999999
   Al
  31
Direct
  0.0004348692040462  0.0000000000000000  0.0004348692040462
  0.2500000000000000  0.0000000000000000  0.2500000000000000
  0.2500000000000000  0.2426564936145284 -0.0073435063854716
 -0.0073435063854716  0.2426564936145284  0.2500000000000000
  0.4995651307959538  0.0000000000000000  0.0004348692040462
  0.7500000000000000  0.0000000000000000  0.2500000000000000
  0.7500000000000000  0.2504348692040462  0.0004348692040462
  0.5073435063854715  0.2426564936145284  0.2500000000000000
 -0.0073435063854716  0.5000000000000000 -0.0073435063854716
  0.2500000000000000  0.7573435063854715 -0.0073435063854716
 -0.0073435063854716  0.7573435063854715  0.2500000000000000
  0.5073435063854715  0.5000000000000000 -0.0073435063854716
  0.7500000000000000  0.5000000000000000  0.2500000000000000
  0.7500000000000000  0.7495651307959539  0.0004348692040462
  0.5073435063854715  0.7573435063854715  0.2500000000000000
  0.0004348692040462  0.0000000000000000  0.4995651307959538
  0.2500000000000000  0.0000000000000000  0.7500000000000000
  0.2500000000000000  0.2426564936145284  0.5073435063854715
  0.0004348692040462  0.2504348692040462  0.7500000000000000
  0.4995651307959538  0.0000000000000000  0.4995651307959538
  0.7500000000000000  0.0000000000000000  0.7500000000000000
  0.7500000000000000  0.2504348692040462  0.4995651307959538
  0.4995651307959538  0.2504348692040462  0.7500000000000000
 -0.0073435063854716  0.5000000000000000  0.5073435063854715
  0.2500000000000000  0.5000000000000000  0.7500000000000000
  0.2500000000000000  0.7573435063854715  0.5073435063854715
  0.0004348692040462  0.7495651307959539  0.7500000000000000
  0.5073435063854715  0.5000000000000000  0.5073435063854715
  0.7500000000000000  0.5000000000000000  0.7500000000000000
  0.7500000000000000  0.7495651307959539  0.4995651307959538
  0.4995651307959538  0.7495651307959539  0.7500000000000000
 
  0.00000000E+00  0.00000000E+00  0.00000000E+00
  0.00000000E+00  0.00000000E+00  0.00000000E+00
  0.00000000E+00  0.00000000E+00  0.00000000E+00
  0.00000000E+00  0.00000000E+00  0.00000000E+00
  0.00000000E+00  0.00000000E+00  0.00000000E+00
  0.00000000E+00  0.00000000E+00  0.00000000E+00
  0.00000000E+00  0.00000000E+00  0.00000000E+00
  0.00000000E+00  0.00000000E+00  0.00000000E+00
  0.00000000E+00  0.00000000E+00  0.00000000E+00
  0.00000000E+00  0.00000000E+00  0.00000000E+00
  0.00000000E+00  0.00000000E+00  0.00000000E+00
  0.00000000E+00  0.00000000E+00  0.00000000E+00
  0.00000000E+00  0.00000000E+00  0.00000000E+00
  0.00000000E+00  0.00000000E+00  0.00000000E+00
  0.00000000E+00  0.00000000E+00  0.00000000E+00
  0.00000000E+00  0.00000000E+00  0.00000000E+00
  0.00000000E+00  0.00000000E+00  0.00000000E+00
  0.00000000E+00  0.00000000E+00  0.00000000E+00
  0.00000000E+00  0.00000000E+00  0.00000000E+00
  0.00000000E+00  0.00000000E+00  0.00000000E+00
  0.00000000E+00  0.00000000E+00  0.00000000E+00
  0.00000000E+00  0.00000000E+00  0.00000000E+00
  0.00000000E+00  0.00000000E+00  0.00000000E+00
  0.00000000E+00  0.00000000E+00  0.00000000E+00
  0.00000000E+00  0.00000000E+00  0.00000000E+00
  0.00000000E+00  0.00000000E+00  0.00000000E+00
  0.00000000E+00  0.00000000E+00  0.00000000E+00
  0.00000000E+00  0.00000000E+00  0.00000000E+00
  0.00000000E+00  0.00000000E+00  0.00000000E+00
  0.00000000E+00  0.00000000E+00  0.00000000E+00
  0.00000000E+00  0.00000000E+00  0.00000000E+00
