Al31                                    
   1.00000000000000     
     8.0870540000000002    0.0000000000000000    0.0000000000000000
     0.0000000000000000    8.0870540000000002    0.0000000000000000
     0.0000000000000000    0.0000000000000000    8.0870540000000002
   Al
  31
Direct
  0.0000000000000000  0.0000000000000000  0.0000000000000000
  0.2494523809462473  0.0000000000000000  0.2494523809462473
  0.2494523809462473  0.2494523809462473  0.0000000000000000
  0.0000000000000000  0.2494523809462473  0.2494523809462473
  0.5000000000000000  0.0000000000000000  0.0000000000000000
  0.7505476190537526  0.0000000000000000  0.2494523809462473
  0.7505476190537526  0.2494523809462473  0.0000000000000000
  0.5000000000000000  0.2532213120082691  0.2532213120082691
  0.0000000000000000  0.5000000000000000  0.0000000000000000
  0.2532213120082691  0.5000000000000000  0.2532213120082691
  0.2494523809462473  0.7505476190537526  0.0000000000000000
  0.0000000000000000  0.7505476190537526  0.2494523809462473
  0.5000000000000000  0.5000000000000000  0.0000000000000000
  0.7467786879917310  0.5000000000000000  0.2532213120082691
  0.7505476190537526  0.7505476190537526  0.0000000000000000
  0.5000000000000000  0.7467786879917310  0.2532213120082691
  0.0000000000000000  0.0000000000000000  0.5000000000000000
  0.2494523809462473  0.0000000000000000  0.7505476190537526
  0.2532213120082691  0.2532213120082691  0.5000000000000000
  0.0000000000000000  0.2494523809462473  0.7505476190537526
  0.5000000000000000  0.0000000000000000  0.5000000000000000
  0.7505476190537526  0.0000000000000000  0.7505476190537526
  0.7467786879917310  0.2532213120082691  0.5000000000000000
  0.5000000000000000  0.2532213120082691  0.7467786879917310
  0.0000000000000000  0.5000000000000000  0.5000000000000000
  0.2532213120082691  0.5000000000000000  0.7467786879917310
  0.2532213120082691  0.7467786879917310  0.5000000000000000
  0.0000000000000000  0.7505476190537526  0.7505476190537526
  0.7467786879917310  0.5000000000000000  0.7467786879917310
  0.7467786879917310  0.7467786879917310  0.5000000000000000
  0.5000000000000000  0.7467786879917310  0.7467786879917310
 
  0.00000000E+00  0.00000000E+00  0.00000000E+00
  0.00000000E+00  0.00000000E+00  0.00000000E+00
  0.00000000E+00  0.00000000E+00  0.00000000E+00
  0.00000000E+00  0.00000000E+00  0.00000000E+00
  0.00000000E+00  0.00000000E+00  0.00000000E+00
  0.00000000E+00  0.00000000E+00  0.00000000E+00
  0.00000000E+00  0.00000000E+00  0.00000000E+00
  0.00000000E+00  0.00000000E+00  0.00000000E+00
  0.00000000E+00  0.00000000E+00  0.00000000E+00
  0.00000000E+00  0.00000000E+00  0.00000000E+00
  0.00000000E+00  0.00000000E+00  0.00000000E+00
  0.00000000E+00  0.00000000E+00  0.00000000E+00
  0.00000000E+00  0.00000000E+00  0.00000000E+00
  0.00000000E+00  0.00000000E+00  0.00000000E+00
  0.00000000E+00  0.00000000E+00  0.00000000E+00
  0.00000000E+00  0.00000000E+00  0.00000000E+00
  0.00000000E+00  0.00000000E+00  0.00000000E+00
  0.00000000E+00  0.00000000E+00  0.00000000E+00
  0.00000000E+00  0.00000000E+00  0.00000000E+00
  0.00000000E+00  0.00000000E+00  0.00000000E+00
  0.00000000E+00  0.00000000E+00  0.00000000E+00
  0.00000000E+00  0.00000000E+00  0.00000000E+00
  0.00000000E+00  0.00000000E+00  0.00000000E+00
  0.00000000E+00  0.00000000E+00  0.00000000E+00
  0.00000000E+00  0.00000000E+00  0.00000000E+00
  0.00000000E+00  0.00000000E+00  0.00000000E+00
  0.00000000E+00  0.00000000E+00  0.00000000E+00
  0.00000000E+00  0.00000000E+00  0.00000000E+00
  0.00000000E+00  0.00000000E+00  0.00000000E+00
  0.00000000E+00  0.00000000E+00  0.00000000E+00
  0.00000000E+00  0.00000000E+00  0.00000000E+00
