Al31
1.0
8.087054 0.000000 0.000000
0.000000 8.087054 0.000000
0.000000 0.000000 8.087054
Al
31
direct
0.000000 0.000000 0.000000 Al
0.250416 0.000000 0.250416 Al
0.250416 0.250416 0.000000 Al
0.000000 0.250416 0.250416 Al
0.500000 0.000000 0.000000 Al
0.749584 0.000000 0.250416 Al
0.749584 0.250416 0.000000 Al
0.500000 0.242728 0.242728 Al
0.000000 0.500000 0.000000 Al
0.242728 0.500000 0.242728 Al
0.250416 0.749584 0.000000 Al
0.000000 0.749584 0.250416 Al
0.500000 0.500000 0.000000 Al
0.757272 0.500000 0.242728 Al
0.749584 0.749584 0.000000 Al
0.500000 0.757272 0.242728 Al
0.000000 0.000000 0.500000 Al
0.250416 0.000000 0.749584 Al
0.242728 0.242728 0.500000 Al
0.000000 0.250416 0.749584 Al
0.500000 0.000000 0.500000 Al
0.749584 0.000000 0.749584 Al
0.757272 0.242728 0.500000 Al
0.500000 0.242728 0.757272 Al
0.000000 0.500000 0.500000 Al
0.242728 0.500000 0.757272 Al
0.242728 0.757272 0.500000 Al
0.000000 0.749584 0.749584 Al
0.757272 0.500000 0.757272 Al
0.757272 0.757272 0.500000 Al
0.500000 0.757272 0.757272 Al

0.000000 0.000000 0.000000
0.000000 0.000000 0.000000
0.000000 0.000000 0.000000
0.000000 0.000000 0.000000
0.000000 0.000000 0.000000
0.000000 0.000000 0.000000
0.000000 0.000000 0.000000
0.000000 0.000000 0.000000
0.000000 0.000000 0.000000
0.000000 0.000000 0.000000
0.000000 0.000000 0.000000
0.000000 0.000000 0.000000
0.000000 0.000000 0.000000
0.000000 0.000000 0.000000
0.000000 0.000000 0.000000
0.000000 0.000000 0.000000
0.000000 0.000000 0.000000
0.000000 0.000000 0.000000
0.000000 0.000000 0.000000
0.000000 0.000000 0.000000
0.000000 0.000000 0.000000
0.000000 0.000000 0.000000
0.000000 0.000000 0.000000
0.000000 0.000000 0.000000
0.000000 0.000000 0.000000
0.000000 0.000000 0.000000
0.000000 0.000000 0.000000
0.000000 0.000000 0.000000
0.000000 0.000000 0.000000
0.000000 0.000000 0.000000
0.000000 0.000000 0.000000
