Mg1 Al32
1.0
8.087040 0.000000 0.000000
0.000000 8.087040 0.000000
0.000000 0.000000 8.087040
Al Mg
32 1
direct
0.001807 0.001807 0.001807 Al
0.251348 0.001325 0.251348 Al
0.251348 0.251348 0.001325 Al
0.001325 0.251348 0.251348 Al
0.496736 -0.007949 -0.007949 Al
0.740374 0.018221 0.244918 Al
0.740374 0.244918 0.018221 Al
0.490411 0.251049 0.251049 Al
-0.007949 0.496736 -0.007949 Al
0.251049 0.490411 0.251049 Al
0.244918 0.740374 0.018221 Al
0.018221 0.740374 0.244918 Al
0.506320 0.506320 -0.013523 Al
0.747244 0.485858 0.242191 Al
0.758261 0.758261 0.049900 Al
0.485858 0.747244 0.242191 Al
-0.007949 -0.007949 0.496736 Al
0.244918 0.018221 0.740374 Al
0.251049 0.251049 0.490411 Al
0.018221 0.244918 0.740374 Al
0.506320 -0.013523 0.506320 Al
0.758261 0.049900 0.758261 Al
0.747244 0.242191 0.485858 Al
0.485858 0.242191 0.747244 Al
-0.013523 0.506320 0.506320 Al
0.242191 0.485858 0.747244 Al
0.242191 0.747244 0.485858 Al
0.049900 0.758261 0.758261 Al
0.509366 0.509366 0.509366 Al
0.753818 0.414237 0.753818 Al
0.753818 0.753818 0.414237 Al
0.414237 0.753818 0.753818 Al
0.726435 0.726435 0.726435 Mg

0.000000 0.000000 0.000000
0.000000 0.000000 0.000000
0.000000 0.000000 0.000000
0.000000 0.000000 0.000000
0.000000 0.000000 0.000000
0.000000 0.000000 0.000000
0.000000 0.000000 0.000000
0.000000 0.000000 0.000000
0.000000 0.000000 0.000000
0.000000 0.000000 0.000000
0.000000 0.000000 0.000000
0.000000 0.000000 0.000000
0.000000 0.000000 0.000000
0.000000 0.000000 0.000000
0.000000 0.000000 0.000000
0.000000 0.000000 0.000000
0.000000 0.000000 0.000000
0.000000 0.000000 0.000000
0.000000 0.000000 0.000000
0.000000 0.000000 0.000000
0.000000 0.000000 0.000000
0.000000 0.000000 0.000000
0.000000 0.000000 0.000000
0.000000 0.000000 0.000000
0.000000 0.000000 0.000000
0.000000 0.000000 0.000000
0.000000 0.000000 0.000000
0.000000 0.000000 0.000000
0.000000 0.000000 0.000000
0.000000 0.000000 0.000000
0.000000 0.000000 0.000000
0.000000 0.000000 0.000000
0.000000 0.000000 0.000000
