Al31                                    
   1.00000000000000     
     8.0870540000000002    0.0000000000000000    0.0000000000000000
     0.0000000000000000    8.0870540000000002    0.0000000000000000
     0.0000000000000000    0.0000000000000000    8.0870540000000002
   Al
  31
Direct
 -0.0005188746041027  0.0000000000000000 -0.0005188746041027
  0.2500000000000000  0.0000000000000000  0.2500000000000000
  0.2500000000000000  0.2532644305030580  0.0032644305030581
  0.0032644305030581  0.2532644305030580  0.2500000000000000
  0.5005188746041027  0.0000000000000000 -0.0005188746041027
  0.7500000000000000  0.0000000000000000  0.2500000000000000
  0.7500000000000000  0.2494811253958973 -0.0005188746041027
  0.4967355694969420  0.2532644305030580  0.2500000000000000
  0.0032644305030581  0.5000000000000000  0.0032644305030581
  0.2500000000000000  0.7467355694969419  0.0032644305030581
  0.0032644305030581  0.7467355694969419  0.2500000000000000
  0.4967355694969420  0.5000000000000000  0.0032644305030581
  0.7500000000000000  0.5000000000000000  0.2500000000000000
  0.7500000000000000  0.7505188746041027 -0.0005188746041027
  0.4967355694969420  0.7467355694969419  0.2500000000000000
 -0.0005188746041027  0.0000000000000000  0.5005188746041027
  0.2500000000000000  0.0000000000000000  0.7500000000000000
  0.2500000000000000  0.2532644305030580  0.4967355694969420
 -0.0005188746041027  0.2494811253958973  0.7500000000000000
  0.5005188746041027  0.0000000000000000  0.5005188746041027
  0.7500000000000000  0.0000000000000000  0.7500000000000000
  0.7500000000000000  0.2494811253958973  0.5005188746041027
  0.5005188746041027  0.2494811253958973  0.7500000000000000
  0.0032644305030581  0.5000000000000000  0.4967355694969420
  0.2500000000000000  0.5000000000000000  0.7500000000000000
  0.2500000000000000  0.7467355694969419  0.4967355694969420
 -0.0005188746041027  0.7505188746041027  0.7500000000000000
  0.4967355694969420  0.5000000000000000  0.4967355694969420
  0.7500000000000000  0.5000000000000000  0.7500000000000000
  0.7500000000000000  0.7505188746041027  0.5005188746041027
  0.5005188746041027  0.7505188746041027  0.7500000000000000
 
  0.00000000E+00  0.00000000E+00  0.00000000E+00
  0.00000000E+00  0.00000000E+00  0.00000000E+00
  0.00000000E+00  0.00000000E+00  0.00000000E+00
  0.00000000E+00  0.00000000E+00  0.00000000E+00
  0.00000000E+00  0.00000000E+00  0.00000000E+00
  0.00000000E+00  0.00000000E+00  0.00000000E+00
  0.00000000E+00  0.00000000E+00  0.00000000E+00
  0.00000000E+00  0.00000000E+00  0.00000000E+00
  0.00000000E+00  0.00000000E+00  0.00000000E+00
  0.00000000E+00  0.00000000E+00  0.00000000E+00
  0.00000000E+00  0.00000000E+00  0.00000000E+00
  0.00000000E+00  0.00000000E+00  0.00000000E+00
  0.00000000E+00  0.00000000E+00  0.00000000E+00
  0.00000000E+00  0.00000000E+00  0.00000000E+00
  0.00000000E+00  0.00000000E+00  0.00000000E+00
  0.00000000E+00  0.00000000E+00  0.00000000E+00
  0.00000000E+00  0.00000000E+00  0.00000000E+00
  0.00000000E+00  0.00000000E+00  0.00000000E+00
  0.00000000E+00  0.00000000E+00  0.00000000E+00
  0.00000000E+00  0.00000000E+00  0.00000000E+00
  0.00000000E+00  0.00000000E+00  0.00000000E+00
  0.00000000E+00  0.00000000E+00  0.00000000E+00
  0.00000000E+00  0.00000000E+00  0.00000000E+00
  0.00000000E+00  0.00000000E+00  0.00000000E+00
  0.00000000E+00  0.00000000E+00  0.00000000E+00
  0.00000000E+00  0.00000000E+00  0.00000000E+00
  0.00000000E+00  0.00000000E+00  0.00000000E+00
  0.00000000E+00  0.00000000E+00  0.00000000E+00
  0.00000000E+00  0.00000000E+00  0.00000000E+00
  0.00000000E+00  0.00000000E+00  0.00000000E+00
  0.00000000E+00  0.00000000E+00  0.00000000E+00
