Al31
1.0
8.087054 0.000000 0.000000
0.000000 8.087054 0.000000
0.000000 0.000000 8.087054
Al
31
direct
0.000450 0.000000 0.000450 Al
0.250000 0.000000 0.250000 Al
0.250000 0.242596 -0.007404 Al
-0.007404 0.242596 0.250000 Al
0.499550 0.000000 0.000450 Al
0.750000 0.000000 0.250000 Al
0.750000 0.250450 0.000450 Al
0.507404 0.242596 0.250000 Al
-0.007404 0.500000 -0.007404 Al
0.250000 0.757404 -0.007404 Al
-0.007404 0.757404 0.250000 Al
0.507404 0.500000 -0.007404 Al
0.750000 0.500000 0.250000 Al
0.750000 0.749550 0.000450 Al
0.507404 0.757404 0.250000 Al
0.000450 0.000000 0.499550 Al
0.250000 0.000000 0.750000 Al
0.250000 0.242596 0.507404 Al
0.000450 0.250450 0.750000 Al
0.499550 0.000000 0.499550 Al
0.750000 0.000000 0.750000 Al
0.750000 0.250450 0.499550 Al
0.499550 0.250450 0.750000 Al
-0.007404 0.500000 0.507404 Al
0.250000 0.500000 0.750000 Al
0.250000 0.757404 0.507404 Al
0.000450 0.749550 0.750000 Al
0.507404 0.500000 0.507404 Al
0.750000 0.500000 0.750000 Al
0.750000 0.749550 0.499550 Al
0.499550 0.749550 0.750000 Al

0.000000 0.000000 0.000000
0.000000 0.000000 0.000000
0.000000 0.000000 0.000000
0.000000 0.000000 0.000000
0.000000 0.000000 0.000000
0.000000 0.000000 0.000000
0.000000 0.000000 0.000000
0.000000 0.000000 0.000000
0.000000 0.000000 0.000000
0.000000 0.000000 0.000000
0.000000 0.000000 0.000000
0.000000 0.000000 0.000000
0.000000 0.000000 0.000000
0.000000 0.000000 0.000000
0.000000 0.000000 0.000000
0.000000 0.000000 0.000000
0.000000 0.000000 0.000000
0.000000 0.000000 0.000000
0.000000 0.000000 0.000000
0.000000 0.000000 0.000000
0.000000 0.000000 0.000000
0.000000 0.000000 0.000000
0.000000 0.000000 0.000000
0.000000 0.000000 0.000000
0.000000 0.000000 0.000000
0.000000 0.000000 0.000000
0.000000 0.000000 0.000000
0.000000 0.000000 0.000000
0.000000 0.000000 0.000000
0.000000 0.000000 0.000000
0.000000 0.000000 0.000000
