Cr4 Fe4 Ni2
1.0
4.000000 0.000000 0.100000
0.100000 4.000000 0.000000
0.000000 0.000000 4.000000
Cr Fe Ni
4 4 2
direct
0.075000 0.000000 0.000000 Cr
0.325000 0.275000 0.175000 Cr
0.000000 0.825000 0.725000 Cr
0.000000 0.600000 0.000000 Cr
0.000000 0.300000 0.000000 Fe
0.300000 0.600000 0.000000 Fe
0.600000 0.300000 0.000000 Fe
0.600000 0.600000 0.000000 Fe
0.375000 0.000000 0.000000 Ni
0.300000 0.300000 0.000000 Ni
