Mg1 Al30                                
   1.00000000000000     
     8.0870519999999999    0.0000000000000000    0.0000000000000000
     0.0000000000000000    8.0870519999999999    0.0000000000000000
     0.0000000000000000    0.0000000000000000    8.0870519999999999
   Al   Mg
  30   1
Direct
  0.9989535186862307  0.0000000000000000  0.9989535186862307
  0.2492126336293691  0.0000000000000000  0.2492126336293691
  0.2515037972979778  0.2544016484881479  0.0054085536136592
  0.0054085536136592  0.2544016484881479  0.2515037972979778
  0.5001177156631033  0.0000000000000000  0.9966361174712535
  0.7538390969240901  0.0000000000000000  0.2503612696278752
  0.7509725916585103  0.2490546864052418  0.9979345665138641
  0.5002186531899986  0.2474863502346353  0.2454406936847373
  0.0043264181124768  0.5000000000000000  0.0043264181124768
  0.2515037972979778  0.7455983515118521  0.0054085536136592
  0.0054085536136592  0.7455983515118521  0.2515037972979778
  0.4987572432455175  0.5000000000000000  0.0031256002064487
  0.7525830134036373  0.5000000000000000  0.2475096996461320
  0.7509725916585103  0.7509453135947582  0.9979345665138641
  0.5002186531899986  0.7525136497653647  0.2454406936847373
  0.9966361174712535  0.0000000000000000  0.5001177156631033
  0.2503612696278752  0.0000000000000000  0.7538390969240901
  0.2454406936847373  0.2474863502346353  0.5002186531899986
  0.9979345665138641  0.2490546864052418  0.7509725916585103
  0.5017517597721838  0.0000000000000000  0.5017517597721838
  0.7504367965685677  0.0000000000000000  0.7504367965685677
  0.7496667207300548  0.2496099818438961  0.4999772001438682
  0.4999772001438682  0.2496099818438961  0.7496667207300548
  0.0031256002064487  0.5000000000000000  0.4987572432455175
  0.2475096996461320  0.5000000000000000  0.7525830134036373
  0.2454406936847373  0.7525136497653647  0.5002186531899986
  0.9979345665138641  0.7509453135947582  0.7509725916585103
  0.7509324720857333  0.5000000000000000  0.7509324720857333
  0.7496667207300548  0.7503900181561038  0.4999772001438682
  0.4999772001438682  0.7503900181561038  0.7496667207300548
  0.4892110912920326  0.5000000000000000  0.4892110912920326
 
  0.00000000E+00  0.00000000E+00  0.00000000E+00
  0.00000000E+00  0.00000000E+00  0.00000000E+00
  0.00000000E+00  0.00000000E+00  0.00000000E+00
  0.00000000E+00  0.00000000E+00  0.00000000E+00
  0.00000000E+00  0.00000000E+00  0.00000000E+00
  0.00000000E+00  0.00000000E+00  0.00000000E+00
  0.00000000E+00  0.00000000E+00  0.00000000E+00
  0.00000000E+00  0.00000000E+00  0.00000000E+00
  0.00000000E+00  0.00000000E+00  0.00000000E+00
  0.00000000E+00  0.00000000E+00  0.00000000E+00
  0.00000000E+00  0.00000000E+00  0.00000000E+00
  0.00000000E+00  0.00000000E+00  0.00000000E+00
  0.00000000E+00  0.00000000E+00  0.00000000E+00
  0.00000000E+00  0.00000000E+00  0.00000000E+00
  0.00000000E+00  0.00000000E+00  0.00000000E+00
  0.00000000E+00  0.00000000E+00  0.00000000E+00
  0.00000000E+00  0.00000000E+00  0.00000000E+00
  0.00000000E+00  0.00000000E+00  0.00000000E+00
  0.00000000E+00  0.00000000E+00  0.00000000E+00
  0.00000000E+00  0.00000000E+00  0.00000000E+00
  0.00000000E+00  0.00000000E+00  0.00000000E+00
  0.00000000E+00  0.00000000E+00  0.00000000E+00
  0.00000000E+00  0.00000000E+00  0.00000000E+00
  0.00000000E+00  0.00000000E+00  0.00000000E+00
  0.00000000E+00  0.00000000E+00  0.00000000E+00
  0.00000000E+00  0.00000000E+00  0.00000000E+00
  0.00000000E+00  0.00000000E+00  0.00000000E+00
  0.00000000E+00  0.00000000E+00  0.00000000E+00
  0.00000000E+00  0.00000000E+00  0.00000000E+00
  0.00000000E+00  0.00000000E+00  0.00000000E+00
  0.00000000E+00  0.00000000E+00  0.00000000E+00
