Mg1 Al30
1.0
8.087052 0.000000 0.000000
0.000000 8.087052 0.000000
0.000000 0.000000 8.087052
Al Mg
30 1
direct
-0.002164 0.000000 -0.002164 Al
0.248166 0.000000 0.248166 Al
0.244758 0.242462 -0.005255 Al
-0.005255 0.242462 0.244758 Al
0.503301 0.000000 -0.004365 Al
0.755198 0.000000 0.246157 Al
0.754663 0.243505 -0.002725 Al
0.508183 0.228672 0.238837 Al
-0.006187 0.500000 -0.006187 Al
0.244758 0.757538 -0.005255 Al
-0.005255 0.757538 0.244758 Al
0.510791 0.500000 -0.006250 Al
0.761400 0.500000 0.236057 Al
0.754663 0.756495 -0.002725 Al
0.508183 0.771328 0.238837 Al
-0.004365 0.000000 0.503301 Al
0.246157 0.000000 0.755198 Al
0.238837 0.228672 0.508183 Al
-0.002725 0.243505 0.754663 Al
0.499634 0.000000 0.499634 Al
0.755503 0.000000 0.755503 Al
0.759064 0.239808 0.501777 Al
0.501777 0.239808 0.759064 Al
-0.006250 0.500000 0.510791 Al
0.236057 0.500000 0.761400 Al
0.238837 0.771328 0.508183 Al
-0.002725 0.756495 0.754663 Al
0.760003 0.500000 0.760003 Al
0.759064 0.760192 0.501777 Al
0.501777 0.760192 0.759064 Al
0.494152 0.500000 0.494152 Mg

0.000000 0.000000 0.000000
0.000000 0.000000 0.000000
0.000000 0.000000 0.000000
0.000000 0.000000 0.000000
0.000000 0.000000 0.000000
0.000000 0.000000 0.000000
0.000000 0.000000 0.000000
0.000000 0.000000 0.000000
0.000000 0.000000 0.000000
0.000000 0.000000 0.000000
0.000000 0.000000 0.000000
0.000000 0.000000 0.000000
0.000000 0.000000 0.000000
0.000000 0.000000 0.000000
0.000000 0.000000 0.000000
0.000000 0.000000 0.000000
0.000000 0.000000 0.000000
0.000000 0.000000 0.000000
0.000000 0.000000 0.000000
0.000000 0.000000 0.000000
0.000000 0.000000 0.000000
0.000000 0.000000 0.000000
0.000000 0.000000 0.000000
0.000000 0.000000 0.000000
0.000000 0.000000 0.000000
0.000000 0.000000 0.000000
0.000000 0.000000 0.000000
0.000000 0.000000 0.000000
0.000000 0.000000 0.000000
0.000000 0.000000 0.000000
0.000000 0.000000 0.000000
