EDIFFG = 5e-2
ENCUT = 300
IALGO = 48
IBRION = 2
ISIF = 3
ISMEAR = 1
LCHARG = True
LWAVE = False
NSW = 191
PREC = Accurate
SIGMA = 0.2
