Al29 Ag1 Pt1 Au1                        
   1.00000000000000     
     8.0870400000000000    0.0000000000000000    0.0000000000000000
     0.0000000000000000    8.0870400000000000    0.0000000000000000
     0.0000000000000000    0.0000000000000000    8.0870400000000000
   Al   Pt   Au   Ag
  29   1   1   1
Direct
 -0.0026486769199070 -0.0056214978524235 -0.0002365010132666
  0.2552918017594300 -0.0095786466983504  0.2504670617964615
  0.2407177576922691  0.2532510144079792  0.0078043400117108
 -0.0072417898533912  0.2573873123048757  0.2570669781883964
  0.7595612629718510  0.0063808298956272  0.2545055912300656
  0.7561657844651971  0.2583744991661685  0.0073575276807496
  0.5096397025415517  0.2565011354392325  0.2557901344904782
 -0.0087086698444389  0.4972442023689230  0.0052562268515501
  0.2457280996079296  0.4957040296084553  0.2570571485391486
 -0.0040171753083431  0.7448948551670654  0.2535448550305584
  0.5004290191576583  0.5011519408792594  0.0014555074678307
  0.7541114082127721  0.4953477457639169  0.2436304381051534
  0.7513776441793198  0.7425234143288851  0.0050433659199236
  0.4969270287905942  0.7492426319960347  0.2544712769196755
 -0.0034151725133663  0.0090543553501444  0.4914771822900167
  0.2413451483851047  0.2566404071737043  0.4925224562720403
 -0.0065285537341650  0.2585631534107516  0.7388739853001901
  0.5041020187095364  0.0040285809882652  0.4884327868422741
  0.7608698835787577  0.0012935125336631  0.7486707762025367
  0.7575081221230086  0.2553522625101551  0.4963594355176658
  0.5097783147202150  0.2702891636265868  0.7405015554092763
  0.0020806209476870  0.4945109636432520  0.4990757098488168
  0.2500245521712366  0.4997222296611455  0.7503391187877142
  0.2432241528536808  0.7412147300085006  0.4960118013848835
 -0.0096792421066849  0.7453971230356088  0.7504521640292492
  0.5121046468056670  0.5013096910605157  0.4928328799596159
  0.7593350005633114  0.4988066596791929  0.7398567395076254
  0.7521590173295034  0.7369925034315066  0.4964871187107058
  0.4987606671390175  0.7485216661075583  0.7520236267585420
  0.2231868778512916  0.7225756357885742  0.0202807150649252
  0.5104804192633755  0.0112877780519441  0.0074550113744150
  0.2473303284603296  0.0016361171632816  0.7451329855210712
 
  0.00000000E+00  0.00000000E+00  0.00000000E+00
  0.00000000E+00  0.00000000E+00  0.00000000E+00
  0.00000000E+00  0.00000000E+00  0.00000000E+00
  0.00000000E+00  0.00000000E+00  0.00000000E+00
  0.00000000E+00  0.00000000E+00  0.00000000E+00
  0.00000000E+00  0.00000000E+00  0.00000000E+00
  0.00000000E+00  0.00000000E+00  0.00000000E+00
  0.00000000E+00  0.00000000E+00  0.00000000E+00
  0.00000000E+00  0.00000000E+00  0.00000000E+00
  0.00000000E+00  0.00000000E+00  0.00000000E+00
  0.00000000E+00  0.00000000E+00  0.00000000E+00
  0.00000000E+00  0.00000000E+00  0.00000000E+00
  0.00000000E+00  0.00000000E+00  0.00000000E+00
  0.00000000E+00  0.00000000E+00  0.00000000E+00
  0.00000000E+00  0.00000000E+00  0.00000000E+00
  0.00000000E+00  0.00000000E+00  0.00000000E+00
  0.00000000E+00  0.00000000E+00  0.00000000E+00
  0.00000000E+00  0.00000000E+00  0.00000000E+00
  0.00000000E+00  0.00000000E+00  0.00000000E+00
  0.00000000E+00  0.00000000E+00  0.00000000E+00
  0.00000000E+00  0.00000000E+00  0.00000000E+00
  0.00000000E+00  0.00000000E+00  0.00000000E+00
  0.00000000E+00  0.00000000E+00  0.00000000E+00
  0.00000000E+00  0.00000000E+00  0.00000000E+00
  0.00000000E+00  0.00000000E+00  0.00000000E+00
  0.00000000E+00  0.00000000E+00  0.00000000E+00
  0.00000000E+00  0.00000000E+00  0.00000000E+00
  0.00000000E+00  0.00000000E+00  0.00000000E+00
  0.00000000E+00  0.00000000E+00  0.00000000E+00
  0.00000000E+00  0.00000000E+00  0.00000000E+00
  0.00000000E+00  0.00000000E+00  0.00000000E+00
  0.00000000E+00  0.00000000E+00  0.00000000E+00
