FCC
1
  4 0 0
  0 4 0
  0 0 4
   Al
   4
Direct
0.00000000 0.00000000 0.0000000
0.5        0.5        0.0
0.5        0.0        0.5
0.0        0.5        0.5
