Mg1 Al1 Fe1 Co1
1.0
4.100000 0.000000 0.000000
0.000000 4.100000 0.000000
0.000000 0.000000 4.100000
Al Co Fe Mg
1 1 1 1
direct
0.234000 0.256000 0.278000 Al
0.266000 0.277000 0.288000 Co
0.222000 0.333000 0.444000 Fe
0.660000 0.660000 0.660000 Mg
