Mg1 Al1 Fe1 Co1
1.0
4.100000 0.000000 0.000000
0.000000 4.100000 0.000000
0.000000 0.000000 4.100000
Al Co Fe Mg
1 1 1 1
direct
0.334000 -0.356000 0.378000 Al
0.344000 -0.344000 0.344000 Co
0.333000 0.444000 0.555000 Fe
0.357000 -0.368000 0.379000 Mg
