Mg1 Al1 Fe1 Co1
1.0
4.100000 0.000000 0.000000
0.000000 4.100000 0.000000
0.000000 0.000000 4.100000
Co Fe Mg Al
1 1 1 1
direct
0.500000 0.250000 0.000000 Co
0.000000 0.250000 0.250000 Fe
0.660000 0.660000 0.660000 Mg
0.000000 0.000000 0.000000 Al
