Mg1 Al1 Fe1 Co1
1.0
4.100000 0.000000 0.000000
0.000000 4.100000 0.000000
0.000000 0.000000 4.100000
Al Co Fe Mg
1 1 1 1
direct
0.434000 -0.456000 0.478000 Al
0.500000 0.250000 0.000000 Co
0.444000 0.555000 0.666000 Fe
0.475000 -0.486000 0.497000 Mg
