Mg1 Al30
1.0
8.087054 0.000000 0.000000
0.000000 8.087054 0.000000
0.000000 0.000000 8.087054
Mg Al
1 30
direct
0.375006 0.500000 0.375006 Mg
0.991209 0.000000 0.991209 Al
0.252770 0.000000 0.252770 Al
0.248504 0.248225 -0.001481 Al
-0.001481 0.248225 0.248504 Al
0.503693 0.000000 0.988749 Al
0.761248 0.000000 0.246310 Al
0.753224 0.239023 0.996772 Al
0.516223 0.219176 0.233779 Al
-0.006480 0.500000 -0.006480 Al
0.248504 0.751775 -0.001481 Al
-0.001481 0.751775 0.248504 Al
0.507943 0.500000 0.005762 Al
0.744234 0.500000 0.242062 Al
0.753224 0.760977 0.996772 Al
0.516223 0.780824 0.233779 Al
0.988749 0.000000 0.503693 Al
0.246310 0.000000 0.761248 Al
0.233779 0.219176 0.516223 Al
0.996772 0.239023 0.753224 Al
0.497231 0.000000 0.497231 Al
0.758791 0.000000 0.758791 Al
0.751484 0.248225 0.501494 Al
0.501494 0.248225 0.751484 Al
0.005762 0.500000 0.507943 Al
0.242062 0.500000 0.744234 Al
0.233779 0.780824 0.516223 Al
0.996772 0.760977 0.753224 Al
0.756484 0.500000 0.756484 Al
0.751484 0.751775 0.501494 Al
0.501494 0.751775 0.751484 Al
