Sc Ti W
1.0
12.000000 11.000000 10.000000
9.000000 8.000000 7.000000
6.000000 5.000000 4.000000
Sc Ti W
4 4 2
direct
0.120000 0.230000 0.340000 Sc
0.220000 0.330000 0.440000 Sc
0.320000 0.430000 0.540000 Sc
0.420000 0.530000 0.640000 Sc
0.520000 0.630000 0.740000 Ti
0.420000 0.530000 0.640000 Ti
0.320000 0.430000 0.540000 Ti
0.220000 0.330000 0.440000 Ti
0.120000 0.230000 0.340000 W
0.020000 0.130000 0.240000 W
