Al31
1.0
8.087052 0.000000 0.000000
0.000000 8.087052 0.000000
0.000000 0.000000 8.087052
Al
31
direct
0.999691 0.000000 0.999691 Al
0.248466 0.000000 0.248466 Al
0.248121 0.253368 0.002380 Al
0.002380 0.253368 0.248121 Al
0.500535 0.000000 0.993073 Al
0.756926 0.000000 0.249466 Al
0.751336 0.250810 0.998663 Al
0.506563 0.236972 0.243435 Al
0.000917 0.500000 0.000917 Al
0.248121 0.746632 0.002380 Al
0.002380 0.746632 0.248121 Al
0.494829 0.500000 0.005421 Al
0.744581 0.500000 0.255169 Al
0.751336 0.749189 0.998663 Al
0.506563 0.763029 0.243435 Al
0.993073 0.000000 0.500535 Al
0.249466 0.000000 0.756926 Al
0.243435 0.236972 0.506563 Al
0.998663 0.250810 0.751336 Al
0.501535 0.000000 0.501535 Al
0.750308 0.000000 0.750308 Al
0.747622 0.253366 0.501880 Al
0.501880 0.253366 0.747622 Al
0.005421 0.500000 0.494829 Al
0.255169 0.500000 0.744581 Al
0.243435 0.763029 0.506563 Al
0.998663 0.749189 0.751336 Al
0.749085 0.500000 0.749085 Al
0.747622 0.746634 0.501880 Al
0.501880 0.746634 0.747622 Al
0.375000 0.500000 0.375000 Al

0.000000 0.000000 0.000000
0.000000 0.000000 0.000000
0.000000 0.000000 0.000000
0.000000 0.000000 0.000000
0.000000 0.000000 0.000000
0.000000 0.000000 0.000000
0.000000 0.000000 0.000000
0.000000 0.000000 0.000000
0.000000 0.000000 0.000000
0.000000 0.000000 0.000000
0.000000 0.000000 0.000000
0.000000 0.000000 0.000000
0.000000 0.000000 0.000000
0.000000 0.000000 0.000000
0.000000 0.000000 0.000000
0.000000 0.000000 0.000000
0.000000 0.000000 0.000000
0.000000 0.000000 0.000000
0.000000 0.000000 0.000000
0.000000 0.000000 0.000000
0.000000 0.000000 0.000000
0.000000 0.000000 0.000000
0.000000 0.000000 0.000000
0.000000 0.000000 0.000000
0.000000 0.000000 0.000000
0.000000 0.000000 0.000000
0.000000 0.000000 0.000000
0.000000 0.000000 0.000000
0.000000 0.000000 0.000000
0.000000 0.000000 0.000000
0.000000 0.000000 0.000000
