Al31
1.0
8.087052 0.000000 0.000000
0.000000 8.087052 0.000000
0.000000 0.000000 8.087052
Al
31
Selective dynamics
direct
0.999691 0.000000 0.999691 F F F Al
0.248466 0.000000 0.248466 F F F Al
0.248121 0.253368 0.002380 F F F Al
0.002380 0.253368 0.248121 F F F Al
0.500535 0.000000 0.993073 F F F Al
0.756926 0.000000 0.249466 F F F Al
0.751336 0.250810 0.998663 F F F Al
0.506563 0.236972 0.243435 F F F Al
0.000917 0.500000 0.000917 F F F Al
0.248121 0.746632 0.002380 F F F Al
0.002380 0.746632 0.248121 F F F Al
0.494829 0.500000 0.005421 F F F Al
0.744581 0.500000 0.255169 F F F Al
0.751336 0.749189 0.998663 F F F Al
0.506563 0.763029 0.243435 F F F Al
0.993073 0.000000 0.500535 F F F Al
0.249466 0.000000 0.756926 F F F Al
0.243435 0.236972 0.506563 F F F Al
0.998663 0.250810 0.751336 F F F Al
0.501535 0.000000 0.501535 F F F Al
0.750308 0.000000 0.750308 F F F Al
0.747622 0.253366 0.501880 F F F Al
0.501880 0.253366 0.747622 F F F Al
0.005421 0.500000 0.494829 F F F Al
0.255169 0.500000 0.744581 F F F Al
0.243435 0.763029 0.506563 F F F Al
0.998663 0.749189 0.751336 F F F Al
0.749085 0.500000 0.749085 F F F Al
0.747622 0.746634 0.501880 F F F Al
0.501880 0.746634 0.747622 F F F Al
0.375000 0.500000 0.375000 T T T Al

0.000000 0.000000 0.000000
0.000000 0.000000 0.000000
0.000000 0.000000 0.000000
0.000000 0.000000 0.000000
0.000000 0.000000 0.000000
0.000000 0.000000 0.000000
0.000000 0.000000 0.000000
0.000000 0.000000 0.000000
0.000000 0.000000 0.000000
0.000000 0.000000 0.000000
0.000000 0.000000 0.000000
0.000000 0.000000 0.000000
0.000000 0.000000 0.000000
0.000000 0.000000 0.000000
0.000000 0.000000 0.000000
0.000000 0.000000 0.000000
0.000000 0.000000 0.000000
0.000000 0.000000 0.000000
0.000000 0.000000 0.000000
0.000000 0.000000 0.000000
0.000000 0.000000 0.000000
0.000000 0.000000 0.000000
0.000000 0.000000 0.000000
0.000000 0.000000 0.000000
0.000000 0.000000 0.000000
0.000000 0.000000 0.000000
0.000000 0.000000 0.000000
0.000000 0.000000 0.000000
0.000000 0.000000 0.000000
0.000000 0.000000 0.000000
0.000000 0.000000 0.000000
