POSCAR_01:Al                            
   1.00000000000000     
    10.9063935957000009    0.0000000000000000    0.0000000000000000
     0.0000000000000000   10.9063935957000009    0.0000000000000000
     0.0000000000000000    0.0000000000000000   10.9063935957000009
   Al   Mg
     1   106
Direct
  0.0037994271534032  0.0020364581511600  0.0069444497974231
  0.9862459392332141  0.9978440706474601  0.3369240167180294
  0.0019636278446100  0.0012865270840834  0.6654247602503673
  0.9995963670907599  0.3350776375367914  0.0005861814834631
  0.0009866238798821  0.3312452892258335  0.3337934558410041
  0.0016774647812241  0.3331641501585310  0.6662950712632494
  0.0014785601742986  0.6669290567089732  0.0018093730593236
  0.0017387672820490  0.6682871178381120  0.3341998298101956
  0.0016530493605700  0.6673357896078045  0.6668498753648890
  0.3318867533470566  0.0015932852412917  0.0047309030813452
  0.3468488425859704  0.9981113491484237  0.3364048423341472
  0.3315550825812821  0.0013031516700863  0.6656202337640522
  0.3342628494522373  0.3346223386070974  0.0008502494227471
  0.3323866347661237  0.3304413381112496  0.3334181747477771
  0.3320142052702550  0.3329719834247911  0.6662738578368206
  0.3323309019913836  0.6674801687447740  0.0019024141237551
  0.3317271981077567  0.6689322397552289  0.3338739978834724
  0.3322647049394192  0.6675993017739614  0.6668985207995988
  0.6663040978595376  0.9996165747839356  0.9987296685895828
  0.6664767498278152  0.0000534460961035  0.3351604039938891
  0.6661884325685605  0.0001436035213729  0.6692863611458932
  0.6661774128792715  0.3364864218625101  0.9986889291747687
  0.6663562588771654  0.3363286237321859  0.3355388573289204
  0.6663332187820146  0.3347274579746795  0.6667616265906560
  0.6662391838192789  0.6677237041457502  0.0003618071797433
  0.6661969190092094  0.6651003339658104  0.3351803475973014
  0.6664060935567306  0.6670376355473806  0.6676711536283833
  0.9858037793360026  0.1725478823424069  0.1650105130459423
  0.0012430846293014  0.1667196602647110  0.4971048595403147
  0.0015768579074305  0.1676736409475552  0.8353141421400352
  0.0014344231044419  0.4988794557664278  0.1683902060302032
  0.0016649985516395  0.4997957978852696  0.4998526429578831
  0.0013477657485410  0.5007384482333777  0.8336353035727697
  0.0008495456502189  0.8352753456682578  0.1691555826669600
  0.0003849283168975  0.8342581721481679  0.5003249937277729
  0.0016196269159607  0.8342912924544450  0.8342697930967091
  0.3475998884309419  0.1709334327590923  0.1644461971658231
  0.3320577060455250  0.1665121083553345  0.4970679048449540
  0.3321274017316611  0.1671811430861041  0.8356014827143241
  0.3321437066497666  0.4988719888199569  0.1683954534942558
  0.3319272749829381  0.4997218412129030  0.4995706062202601
  0.3325266417515778  0.5007481527585540  0.8338655819666840
  0.3322228719323803  0.8369529077707796  0.1684326260318585
  0.3330224196604306  0.8346461717830422  0.5002262721415462
  0.3320910907238783  0.8348194240806350  0.8347401952673721
  0.6664241833847768  0.1682635842450253  0.1671076159388747
  0.6664705321226734  0.1680986800574544  0.5029398904412830
  0.6663883517558347  0.1678515736000818  0.8310867017023043
  0.6661303232039799  0.5034613001698602  0.1674535812473366
  0.6663978378245545  0.5006518198814405  0.5015209172213062
  0.6663629074092725  0.5016025884408890  0.8331086976994513
  0.6664466777535694  0.8317846341846860  0.1671047101673224
  0.6663992052669769  0.8323417471019425  0.5026171382662881
  0.6665448911898011  0.8334687543053576  0.8341901050975267
  0.1666928615391043  0.0050256473668924  0.4916583842650653
  0.1672296222531173  0.0017363789806168  0.8362173108329571
  0.1670128272064062  0.3263851617210847  0.1718327614548372
  0.1668300938935374  0.3310591937500789  0.4978454466830584
  0.1671573737514720  0.3330812998270147  0.8348456189860229
  0.1670451592080369  0.6682704674640050  0.1688789631990133
  0.1669859370739104  0.6685764755159056  0.4991900127507023
  0.1672064550647576  0.6672360289373671  0.8339763225712957
  0.5034637256804757  0.9994704892904380  0.1662479978916522
  0.5026128169977397  0.0002689453929818  0.5035113625288190
  0.4981192489324542  0.0004539636500596  0.8338010685185751
  0.5035798177268376  0.3374165080079052  0.1671566925261203
  0.4985477500672459  0.3339577065749850  0.5008159402179402
  0.4991235681051975  0.3348133987682829  0.8326820628299458
  0.4981719710702848  0.6671431328277251  0.1677762313640230
  0.4986574083304944  0.6666607874301960  0.5013032464748335
  0.4988674081353608  0.6676237310846886  0.8339594218172053
  0.8296287315461512  0.9994807879754930  0.1668305204804739
  0.8301720502328678  0.0002021010965265  0.5038288579155363
  0.8349595237001992  0.0005190992585824  0.8335977052783790
  0.8290996328220004  0.3378736867997603  0.1672299456706057
  0.8344856889746595  0.3342038139671928  0.5010602604312950
  0.8338350919154323  0.3350152846621341  0.8325224838357670
  0.8344065741051736  0.6664715792781308  0.1679249127733513
  0.8343609342257423  0.6664018401957748  0.5014842072542862
  0.8343099528290381  0.6674643075344662  0.8338639756222719
  0.1678457766999983  0.1659374671357909  0.0089169711531198
  0.1664651483305164  0.0851454252265071  0.2505245931627371
  0.1669410503947972  0.1665925112756952  0.6654998170591711
  0.1670671805649846  0.4993162949592644  0.0023833763415766
  0.1669334760461325  0.4986479351479289  0.3336466524145933
  0.1671269798735793  0.5001630838241837  0.6664044497000532
  0.1674536092583239  0.8347348073872638  0.0034401781554010
  0.1667951435923811  0.8424777012501394  0.3300426721158942
  0.1670281183688402  0.8357023626847990  0.6661006311970468
  0.5034952835365019  0.1679762098151869  0.9975259760271697
  0.5034628781583734  0.1686853618964221  0.3355044683076471
  0.4980454148470201  0.1673617822990394  0.6673218586558747
  0.4992376368373144  0.5020247941750924  0.0002282818198793
  0.4982094795839203  0.5009535195700749  0.3346635317527742
  0.4986752125664822  0.5007718844493283  0.6670025004261007
  0.4984130880304889  0.8339046431317385  0.0008964837236505
  0.5028517100352019  0.8311889711735319  0.3347543910806934
  0.4987672572470601  0.8336579041163645  0.6681101751200487
  0.8290114826995421  0.1686615484120750  0.9975370645544075
  0.8295502094676408  0.1690934200428273  0.3356713068802151
  0.8349503851281099  0.1676049224767979  0.6674384964457474
  0.8336696462680848  0.5019571839749943  0.0000625531698120
  0.8346300822082569  0.5009843337792930  0.3349047764651800
  0.8344458160154602  0.5008008456088007  0.6670131616253485
  0.8342787393749447  0.8332568632826280  0.0009989396893246
  0.8299478324358205  0.8306034426266109  0.3349699170181637
  0.8343219090570315  0.8334123594277472  0.6681690455535119
 
  0.00000000E+00  0.00000000E+00  0.00000000E+00
  0.00000000E+00  0.00000000E+00  0.00000000E+00
  0.00000000E+00  0.00000000E+00  0.00000000E+00
  0.00000000E+00  0.00000000E+00  0.00000000E+00
  0.00000000E+00  0.00000000E+00  0.00000000E+00
  0.00000000E+00  0.00000000E+00  0.00000000E+00
  0.00000000E+00  0.00000000E+00  0.00000000E+00
  0.00000000E+00  0.00000000E+00  0.00000000E+00
  0.00000000E+00  0.00000000E+00  0.00000000E+00
  0.00000000E+00  0.00000000E+00  0.00000000E+00
  0.00000000E+00  0.00000000E+00  0.00000000E+00
  0.00000000E+00  0.00000000E+00  0.00000000E+00
  0.00000000E+00  0.00000000E+00  0.00000000E+00
  0.00000000E+00  0.00000000E+00  0.00000000E+00
  0.00000000E+00  0.00000000E+00  0.00000000E+00
  0.00000000E+00  0.00000000E+00  0.00000000E+00
  0.00000000E+00  0.00000000E+00  0.00000000E+00
  0.00000000E+00  0.00000000E+00  0.00000000E+00
  0.00000000E+00  0.00000000E+00  0.00000000E+00
  0.00000000E+00  0.00000000E+00  0.00000000E+00
  0.00000000E+00  0.00000000E+00  0.00000000E+00
  0.00000000E+00  0.00000000E+00  0.00000000E+00
  0.00000000E+00  0.00000000E+00  0.00000000E+00
  0.00000000E+00  0.00000000E+00  0.00000000E+00
  0.00000000E+00  0.00000000E+00  0.00000000E+00
  0.00000000E+00  0.00000000E+00  0.00000000E+00
  0.00000000E+00  0.00000000E+00  0.00000000E+00
  0.00000000E+00  0.00000000E+00  0.00000000E+00
  0.00000000E+00  0.00000000E+00  0.00000000E+00
  0.00000000E+00  0.00000000E+00  0.00000000E+00
  0.00000000E+00  0.00000000E+00  0.00000000E+00
  0.00000000E+00  0.00000000E+00  0.00000000E+00
  0.00000000E+00  0.00000000E+00  0.00000000E+00
  0.00000000E+00  0.00000000E+00  0.00000000E+00
  0.00000000E+00  0.00000000E+00  0.00000000E+00
  0.00000000E+00  0.00000000E+00  0.00000000E+00
  0.00000000E+00  0.00000000E+00  0.00000000E+00
  0.00000000E+00  0.00000000E+00  0.00000000E+00
  0.00000000E+00  0.00000000E+00  0.00000000E+00
  0.00000000E+00  0.00000000E+00  0.00000000E+00
  0.00000000E+00  0.00000000E+00  0.00000000E+00
  0.00000000E+00  0.00000000E+00  0.00000000E+00
  0.00000000E+00  0.00000000E+00  0.00000000E+00
  0.00000000E+00  0.00000000E+00  0.00000000E+00
  0.00000000E+00  0.00000000E+00  0.00000000E+00
  0.00000000E+00  0.00000000E+00  0.00000000E+00
  0.00000000E+00  0.00000000E+00  0.00000000E+00
  0.00000000E+00  0.00000000E+00  0.00000000E+00
  0.00000000E+00  0.00000000E+00  0.00000000E+00
  0.00000000E+00  0.00000000E+00  0.00000000E+00
  0.00000000E+00  0.00000000E+00  0.00000000E+00
  0.00000000E+00  0.00000000E+00  0.00000000E+00
  0.00000000E+00  0.00000000E+00  0.00000000E+00
  0.00000000E+00  0.00000000E+00  0.00000000E+00
  0.00000000E+00  0.00000000E+00  0.00000000E+00
  0.00000000E+00  0.00000000E+00  0.00000000E+00
  0.00000000E+00  0.00000000E+00  0.00000000E+00
  0.00000000E+00  0.00000000E+00  0.00000000E+00
  0.00000000E+00  0.00000000E+00  0.00000000E+00
  0.00000000E+00  0.00000000E+00  0.00000000E+00
  0.00000000E+00  0.00000000E+00  0.00000000E+00
  0.00000000E+00  0.00000000E+00  0.00000000E+00
  0.00000000E+00  0.00000000E+00  0.00000000E+00
  0.00000000E+00  0.00000000E+00  0.00000000E+00
  0.00000000E+00  0.00000000E+00  0.00000000E+00
  0.00000000E+00  0.00000000E+00  0.00000000E+00
  0.00000000E+00  0.00000000E+00  0.00000000E+00
  0.00000000E+00  0.00000000E+00  0.00000000E+00
  0.00000000E+00  0.00000000E+00  0.00000000E+00
  0.00000000E+00  0.00000000E+00  0.00000000E+00
  0.00000000E+00  0.00000000E+00  0.00000000E+00
  0.00000000E+00  0.00000000E+00  0.00000000E+00
  0.00000000E+00  0.00000000E+00  0.00000000E+00
  0.00000000E+00  0.00000000E+00  0.00000000E+00
  0.00000000E+00  0.00000000E+00  0.00000000E+00
  0.00000000E+00  0.00000000E+00  0.00000000E+00
  0.00000000E+00  0.00000000E+00  0.00000000E+00
  0.00000000E+00  0.00000000E+00  0.00000000E+00
  0.00000000E+00  0.00000000E+00  0.00000000E+00
  0.00000000E+00  0.00000000E+00  0.00000000E+00
  0.00000000E+00  0.00000000E+00  0.00000000E+00
  0.00000000E+00  0.00000000E+00  0.00000000E+00
  0.00000000E+00  0.00000000E+00  0.00000000E+00
  0.00000000E+00  0.00000000E+00  0.00000000E+00
  0.00000000E+00  0.00000000E+00  0.00000000E+00
  0.00000000E+00  0.00000000E+00  0.00000000E+00
  0.00000000E+00  0.00000000E+00  0.00000000E+00
  0.00000000E+00  0.00000000E+00  0.00000000E+00
  0.00000000E+00  0.00000000E+00  0.00000000E+00
  0.00000000E+00  0.00000000E+00  0.00000000E+00
  0.00000000E+00  0.00000000E+00  0.00000000E+00
  0.00000000E+00  0.00000000E+00  0.00000000E+00
  0.00000000E+00  0.00000000E+00  0.00000000E+00
  0.00000000E+00  0.00000000E+00  0.00000000E+00
  0.00000000E+00  0.00000000E+00  0.00000000E+00
  0.00000000E+00  0.00000000E+00  0.00000000E+00
  0.00000000E+00  0.00000000E+00  0.00000000E+00
  0.00000000E+00  0.00000000E+00  0.00000000E+00
  0.00000000E+00  0.00000000E+00  0.00000000E+00
  0.00000000E+00  0.00000000E+00  0.00000000E+00
  0.00000000E+00  0.00000000E+00  0.00000000E+00
  0.00000000E+00  0.00000000E+00  0.00000000E+00
  0.00000000E+00  0.00000000E+00  0.00000000E+00
  0.00000000E+00  0.00000000E+00  0.00000000E+00
  0.00000000E+00  0.00000000E+00  0.00000000E+00
  0.00000000E+00  0.00000000E+00  0.00000000E+00
  0.00000000E+00  0.00000000E+00  0.00000000E+00
