ENCUT = 360.6555
IBRION = 2
ISIF = 3
ISMEAR = 1
LCHARG = False
LWAVE = False
NSW = 191
PREC = Accurate
SIGMA = 0.2
