Mg1 Al32                                
   1.00000000000000     
     8.0870400000000000    0.0000000000000000    0.0000000000000000
     0.0000000000000000    8.0870400000000000    0.0000000000000000
     0.0000000000000000    0.0000000000000000    8.0870400000000000
   Al   Mg
  32   1
Direct
  0.0097019630649897  0.0097019630649897  0.0097019630649897
  0.2508297815779872  0.0156554955951406  0.2508297815779872
  0.2508297815779872  0.2508297815779872  0.0156554955951406
  0.0156554955951406  0.2508297815779872  0.2508297815779872
  0.4872127017727668  0.0047864673198061  0.0047864673198061
  0.7358954202104460  0.0274824918490565  0.2458120856746506
  0.7358954202104460  0.2458120856746506  0.0274824918490565
  0.4794002551823268  0.2423291149005180  0.2423291149005180
  0.0047864673198061  0.4872127017727668  0.0047864673198061
  0.2423291149005180  0.4794002551823268  0.2423291149005180
  0.2458120856746506  0.7358954202104460  0.0274824918490565
  0.0274824918490565  0.7358954202104460  0.2458120856746505
  0.4880287786967043  0.4880287786967043  0.0054010807847698
  0.7567597904766418  0.4822155979730375  0.2366045053362656
  0.7687711968475133  0.7687711968475133  0.0472157375744962
  0.4822155979730375  0.7567597904766418  0.2366045053362656
  0.0047864673198061  0.0047864673198061  0.4872127017727668
  0.2458120856746505  0.0274824918490565  0.7358954202104460
  0.2423291149005180  0.2423291149005180  0.4794002551823268
  0.0274824918490565  0.2458120856746506  0.7358954202104460
  0.4880287786967043  0.0054010807847698  0.4880287786967043
  0.7687711968475133  0.0472157375744962  0.7687711968475133
  0.7567597904766418  0.2366045053362656  0.4822155979730375
  0.4822155979730375  0.2366045053362656  0.7567597904766418
  0.0054010807847698  0.4880287786967043  0.4880287786967043
  0.2366045053362656  0.4822155979730375  0.7567597904766418
  0.2366045053362656  0.7567597904766418  0.4822155979730375
  0.0472157375744962  0.7687711968475133  0.7687711968475133
  0.4889802889531396  0.4889802889531396  0.4889802889531396
  0.7649020351895941  0.4003938728093690  0.7649020351895941
  0.7649020351895941  0.7649020351895941  0.4003938728093690
  0.4003938728093690  0.7649020351895941  0.7649020351895941
  0.7172040721585564  0.7172040721585564  0.7172040721585564
 
  0.00000000E+00  0.00000000E+00  0.00000000E+00
  0.00000000E+00  0.00000000E+00  0.00000000E+00
  0.00000000E+00  0.00000000E+00  0.00000000E+00
  0.00000000E+00  0.00000000E+00  0.00000000E+00
  0.00000000E+00  0.00000000E+00  0.00000000E+00
  0.00000000E+00  0.00000000E+00  0.00000000E+00
  0.00000000E+00  0.00000000E+00  0.00000000E+00
  0.00000000E+00  0.00000000E+00  0.00000000E+00
  0.00000000E+00  0.00000000E+00  0.00000000E+00
  0.00000000E+00  0.00000000E+00  0.00000000E+00
  0.00000000E+00  0.00000000E+00  0.00000000E+00
  0.00000000E+00  0.00000000E+00  0.00000000E+00
  0.00000000E+00  0.00000000E+00  0.00000000E+00
  0.00000000E+00  0.00000000E+00  0.00000000E+00
  0.00000000E+00  0.00000000E+00  0.00000000E+00
  0.00000000E+00  0.00000000E+00  0.00000000E+00
  0.00000000E+00  0.00000000E+00  0.00000000E+00
  0.00000000E+00  0.00000000E+00  0.00000000E+00
  0.00000000E+00  0.00000000E+00  0.00000000E+00
  0.00000000E+00  0.00000000E+00  0.00000000E+00
  0.00000000E+00  0.00000000E+00  0.00000000E+00
  0.00000000E+00  0.00000000E+00  0.00000000E+00
  0.00000000E+00  0.00000000E+00  0.00000000E+00
  0.00000000E+00  0.00000000E+00  0.00000000E+00
  0.00000000E+00  0.00000000E+00  0.00000000E+00
  0.00000000E+00  0.00000000E+00  0.00000000E+00
  0.00000000E+00  0.00000000E+00  0.00000000E+00
  0.00000000E+00  0.00000000E+00  0.00000000E+00
  0.00000000E+00  0.00000000E+00  0.00000000E+00
  0.00000000E+00  0.00000000E+00  0.00000000E+00
  0.00000000E+00  0.00000000E+00  0.00000000E+00
  0.00000000E+00  0.00000000E+00  0.00000000E+00
  0.00000000E+00  0.00000000E+00  0.00000000E+00
