Mg1 Al30                                
   1.00000000000000     
     8.0870519999999999    0.0000000000000000    0.0000000000000000
     0.0000000000000000    8.0870519999999999    0.0000000000000000
     0.0000000000000000    0.0000000000000000    8.0870519999999999
   Al   Mg
  30   1
Selective dynamics
Direct
  0.9995619999999974  0.0000000000000000  0.9995619999999974   F   F   F
  0.2482499999999987  0.0000000000000000  0.2482499999999987   F   F   F
  0.2500229999999988  0.2496089999999995  0.0003299999999982   F   F   F
  0.0003299999999982  0.2496089999999995  0.2500229999999988   F   F   F
  0.4996409999999969  0.0000000000000000  0.9961630000000028   F   F   F
  0.7533630000000002  0.0000000000000000  0.2498829999999970   F   F   F
  0.7520650000000018  0.2490540000000010  0.9990269999999981   F   F   F
  0.5045610000000025  0.2474819999999980  0.2497789999999966   F   F   F
  0.9990659999999991  0.5000000000000000  0.9990659999999991   F   F   F
  0.2500229999999988  0.7503910000000005  0.0003299999999982   F   F   F
  0.0003299999999982  0.7503910000000005  0.2500229999999988   F   F   F
  0.5024909999999991  0.5000000000000000  0.9974139999999991   F   F   F
  0.7468739999999983  0.5000000000000000  0.2512389999999982   F   F   F
  0.7520650000000018  0.7509459999999990  0.9990269999999981   F   F   F
  0.5045610000000025  0.7525180000000020  0.2497789999999966   F   F   F
  0.9961630000000028  0.0000000000000000  0.4996409999999969   F   F   F
  0.2498829999999970  0.0000000000000000  0.7533630000000002   F   F   F
  0.2497789999999966  0.2474819999999980  0.5045610000000025   F   F   F
  0.9990269999999981  0.2490540000000010  0.7520650000000018   F   F   F
  0.5007859999999980  0.0000000000000000  0.5007859999999980   F   F   F
  0.7510469999999998  0.0000000000000000  0.7510469999999998   F   F   F
  0.7445939999999993  0.2543999999999969  0.4984979999999979   F   F   F
  0.4984979999999979  0.2543999999999969  0.7445939999999993   F   F   F
  0.9974139999999991  0.5000000000000000  0.5024909999999991   F   F   F
  0.2512389999999982  0.5000000000000000  0.7468739999999983   F   F   F
  0.2497789999999966  0.7525180000000020  0.5045610000000025   F   F   F
  0.9990269999999981  0.7509459999999990  0.7520650000000018   F   F   F
  0.7456760000000031  0.5000000000000000  0.7456760000000031   F   F   F
  0.7445939999999993  0.7456000000000031  0.4984979999999979   F   F   F
  0.4984979999999979  0.7456000000000031  0.7445939999999993   F   F   F
  0.2607879999999980  0.4999999999999999  0.2589331831891255   T   T   T
 
  0.00000000E+00  0.00000000E+00  0.00000000E+00
  0.00000000E+00  0.00000000E+00  0.00000000E+00
  0.00000000E+00  0.00000000E+00  0.00000000E+00
  0.00000000E+00  0.00000000E+00  0.00000000E+00
  0.00000000E+00  0.00000000E+00  0.00000000E+00
  0.00000000E+00  0.00000000E+00  0.00000000E+00
  0.00000000E+00  0.00000000E+00  0.00000000E+00
  0.00000000E+00  0.00000000E+00  0.00000000E+00
  0.00000000E+00  0.00000000E+00  0.00000000E+00
  0.00000000E+00  0.00000000E+00  0.00000000E+00
  0.00000000E+00  0.00000000E+00  0.00000000E+00
  0.00000000E+00  0.00000000E+00  0.00000000E+00
  0.00000000E+00  0.00000000E+00  0.00000000E+00
  0.00000000E+00  0.00000000E+00  0.00000000E+00
  0.00000000E+00  0.00000000E+00  0.00000000E+00
  0.00000000E+00  0.00000000E+00  0.00000000E+00
  0.00000000E+00  0.00000000E+00  0.00000000E+00
  0.00000000E+00  0.00000000E+00  0.00000000E+00
  0.00000000E+00  0.00000000E+00  0.00000000E+00
  0.00000000E+00  0.00000000E+00  0.00000000E+00
  0.00000000E+00  0.00000000E+00  0.00000000E+00
  0.00000000E+00  0.00000000E+00  0.00000000E+00
  0.00000000E+00  0.00000000E+00  0.00000000E+00
  0.00000000E+00  0.00000000E+00  0.00000000E+00
  0.00000000E+00  0.00000000E+00  0.00000000E+00
  0.00000000E+00  0.00000000E+00  0.00000000E+00
  0.00000000E+00  0.00000000E+00  0.00000000E+00
  0.00000000E+00  0.00000000E+00  0.00000000E+00
  0.00000000E+00  0.00000000E+00  0.00000000E+00
  0.00000000E+00  0.00000000E+00  0.00000000E+00
  0.00000000E+00  0.00000000E+00  0.00000000E+00
