Mg1 Al30
1.0
8.087052 0.000000 0.000000
0.000000 8.087052 0.000000
0.000000 0.000000 8.087052
Al Mg
30 1
Selective dynamics
direct
0.999562 0.000000 0.999562 F F F Al
0.248250 0.000000 0.248250 F F F Al
0.250023 0.249609 0.000330 F F F Al
0.000330 0.249609 0.250023 F F F Al
0.499641 0.000000 0.996163 F F F Al
0.753363 0.000000 0.249883 F F F Al
0.752065 0.249054 0.999027 F F F Al
0.504561 0.247482 0.249779 F F F Al
0.999066 0.500000 0.999066 F F F Al
0.250023 0.750391 0.000330 F F F Al
0.000330 0.750391 0.250023 F F F Al
0.502491 0.500000 0.997414 F F F Al
0.746874 0.500000 0.251239 F F F Al
0.752065 0.750946 0.999027 F F F Al
0.504561 0.752518 0.249779 F F F Al
0.996163 0.000000 0.499641 F F F Al
0.249883 0.000000 0.753363 F F F Al
0.249779 0.247482 0.504561 F F F Al
0.999027 0.249054 0.752065 F F F Al
0.500786 0.000000 0.500786 F F F Al
0.751047 0.000000 0.751047 F F F Al
0.744594 0.254400 0.498498 F F F Al
0.498498 0.254400 0.744594 F F F Al
0.997414 0.500000 0.502491 F F F Al
0.251239 0.500000 0.746874 F F F Al
0.249779 0.752518 0.504561 F F F Al
0.999027 0.750946 0.752065 F F F Al
0.745676 0.500000 0.745676 F F F Al
0.744594 0.745600 0.498498 F F F Al
0.498498 0.745600 0.744594 F F F Al
0.260788 0.500000 0.260788 T T T Mg

0.000000 0.000000 0.000000
0.000000 0.000000 0.000000
0.000000 0.000000 0.000000
0.000000 0.000000 0.000000
0.000000 0.000000 0.000000
0.000000 0.000000 0.000000
0.000000 0.000000 0.000000
0.000000 0.000000 0.000000
0.000000 0.000000 0.000000
0.000000 0.000000 0.000000
0.000000 0.000000 0.000000
0.000000 0.000000 0.000000
0.000000 0.000000 0.000000
0.000000 0.000000 0.000000
0.000000 0.000000 0.000000
0.000000 0.000000 0.000000
0.000000 0.000000 0.000000
0.000000 0.000000 0.000000
0.000000 0.000000 0.000000
0.000000 0.000000 0.000000
0.000000 0.000000 0.000000
0.000000 0.000000 0.000000
0.000000 0.000000 0.000000
0.000000 0.000000 0.000000
0.000000 0.000000 0.000000
0.000000 0.000000 0.000000
0.000000 0.000000 0.000000
0.000000 0.000000 0.000000
0.000000 0.000000 0.000000
0.000000 0.000000 0.000000
0.000000 0.000000 0.000000
