POSCAR_02:Al                                      
1.0000000000
10.9063935957 0.0000000000 0.0000000000
0.0000000000 10.9063935957 0.0000000000
0.0000000000 0.0000000000 10.9063935957
   Al   Mg
1 106 
D
0.0020231614 -0.0000000000 0.0020231614
0.0028402485 -0.0000000000 0.3355188628
0.0019228223 -0.0000000000 0.6672223714
0.0018774695 0.3337670493 0.0018774695
0.0018238671 0.3335322380 0.3353660124
0.0018912826 0.3334561205 0.6674495161
0.0018774695 0.6662329507 0.0018774695
0.0018238671 0.6664677620 0.3353660124
0.0018912826 0.6665438795 0.6674495161
0.3355188628 -0.0000000000 0.0028402485
0.1714137149 -0.0000000000 0.1714137149
0.3352712323 -0.0000000000 0.6666938531
0.3353660124 0.3335322380 0.0018238671
0.3351677541 0.3323052951 0.3351677541
0.3352070753 0.3332529469 0.6675705670
0.3353660124 0.6664677620 0.0018238671
0.3351677541 0.6676947049 0.3351677541
0.3352070753 0.6667470531 0.6675705670
0.6672223714 -0.0000000000 0.0019228223
0.6666938531 -0.0000000000 0.3352712323
0.6673210249 -0.0000000000 0.6673210249
0.6674495161 0.3334561205 0.0018912826
0.6675705670 0.3332529469 0.3352070753
0.6676083536 0.3333028888 0.6676083536
0.6674495161 0.6665438795 0.0018912826
0.6675705670 0.6667470531 0.3352070753
0.6676083536 0.6666971112 0.6676083536
0.0023775097 0.1670264666 0.1696872982
0.0023892449 0.1663870697 0.5009500377
0.0019711221 0.1672834646 0.8340237647
0.0019905197 0.5000000000 0.1687985985
0.0020114045 0.5000000000 0.5013482405
0.0017214874 0.5000000000 0.8345421082
0.0023775097 0.8329735334 0.1696872982
0.0023892449 0.8336129303 0.5009500377
0.0019711221 0.8327165354 0.8340237647
0.3352549457 0.1652262523 0.1704821735
0.3351095520 0.1647992138 0.4995308488
0.3352987286 0.1666304245 0.8344928693
0.3352047386 0.5000000000 0.1689156247
0.3350856914 0.5000000000 0.5010818995
0.3352275085 0.5000000000 0.8346017226
0.3352549457 0.8347737477 0.1704821735
0.3351095520 0.8352007862 0.4995308488
0.3352987286 0.8333695755 0.8344928693
0.6670522445 0.1664358568 0.1691279297
0.6670801896 0.1662855102 0.5009807023
0.6674346286 0.1667912658 0.8345266877
0.6675030800 0.5000000000 0.1687405543
0.6675736723 0.5000000000 0.5013101072
0.6677969530 0.5000000000 0.8346424658
0.6670522445 0.8335641432 0.1691279297
0.6670801896 0.8337144898 0.5009807023
0.6674346286 0.8332087342 0.8345266877
0.1706294974 -0.0000000000 0.4994425509
0.1695072549 -0.0000000000 0.8341785564
0.1691610791 0.3329198005 0.1691610791
0.1690182238 0.3327881054 0.5010097421
0.1688632185 0.3333205927 0.8344809865
0.1691610791 0.6670801995 0.1691610791
0.1690182238 0.6672118946 0.5010097421
0.1688632185 0.6666794073 0.8344809865
0.4994425509 -0.0000000000 0.1706294974
0.4992465544 -0.0000000000 0.4992465544
0.5010922941 -0.0000000000 0.8346026817
0.5010097421 0.3327881054 0.1690182238
0.5009652753 0.3325855968 0.5009652753
0.5013371598 0.3332072251 0.8346643290
0.5010097421 0.6672118946 0.1690182238
0.5009652753 0.6674144032 0.5009652753
0.5013371598 0.6667927749 0.8346643290
0.8341785564 -0.0000000000 0.1695072549
0.8346026817 -0.0000000000 0.5010922941
0.8339625475 -0.0000000000 0.8339625475
0.8344809865 0.3333205927 0.1688632185
0.8346643290 0.3332072251 0.5013371598
0.8345183382 0.3335267464 0.8345183382
0.8344809865 0.6666794073 0.1688632185
0.8346643290 0.6667927749 0.5013371598
0.8345183382 0.6664732536 0.8345183382
0.1696872982 0.1670264666 0.0023775097
0.1704821735 0.1652262523 0.3352549457
0.1691279297 0.1664358568 0.6670522445
0.1687985985 0.5000000000 0.0019905197
0.1689156247 0.5000000000 0.3352047386
0.1687405543 0.5000000000 0.6675030800
0.1696872982 0.8329735334 0.0023775097
0.1704821735 0.8347737477 0.3352549457
0.1691279297 0.8335641432 0.6670522445
0.5009500377 0.1663870697 0.0023892449
0.4995308488 0.1647992138 0.3351095520
0.5009807023 0.1662855102 0.6670801896
0.5013482405 0.5000000000 0.0020114045
0.5010818995 0.5000000000 0.3350856914
0.5013101072 0.5000000000 0.6675736723
0.5009500377 0.8336129303 0.0023892449
0.4995308488 0.8352007862 0.3351095520
0.5009807023 0.8337144898 0.6670801896
0.8340237647 0.1672834646 0.0019711221
0.8344928693 0.1666304245 0.3352987286
0.8345266877 0.1667912658 0.6674346286
0.8345421082 0.5000000000 0.0017214874
0.8346017226 0.5000000000 0.3352275085
0.8346424658 0.5000000000 0.6677969530
0.8340237647 0.8327165354 0.0019711221
0.8344928693 0.8333695755 0.3352987286
0.8345266877 0.8332087342 0.6674346286
