Fe3
1.0
3.585051 0.000000 0.000000
0.000000 3.585051 0.000000
0.000000 0.000000 3.585051
Fe
3
direct
0.000000 0.000000 0.000000 Fe
0.500000 0.000000 0.500000 Fe
0.500000 0.500000 0.000000 Fe
