ENCUT = 360.6555
IBRION = 5
ICHARG = 1
ISIF = 2
ISMEAR = 1
ISTART = 1
LCHARG = False
LWAVE = False
NFREE = 2
NSW = 191
POTIM = 0.01
PREC = Accurate
SIGMA = 0.2
