Al29 Ag1 Pt1 Au1                        
   1.00000000000000     
     8.0870400000000000    0.0000000000000000    0.0000000000000000
     0.0000000000000000    8.0870400000000000    0.0000000000000000
     0.0000000000000000    0.0000000000000000    8.0870400000000000
   Al   Pt   Au   Ag
  29   1   1   1
Direct
  0.0059410000000000  0.9916259999999966  0.9993690000000015
  0.2528190000000023  0.9907030000000034  0.2420130000000000
  0.2502360000000010  0.2454820000000026  0.0002970000000033
  0.0006739999999965  0.2509689999999978  0.2486389999999972
  0.7537080000000032  0.0005459999999999  0.2507590000000022
  0.7516379999999998  0.2533839999999969  0.9989459999999966
  0.5025180000000020  0.2536920000000009  0.2499309999999966
  0.9961780000000005  0.4988349999999997  0.0009340000000009
  0.2496930000000006  0.4986219999999975  0.2515769999999975
  0.9983819999999994  0.7470700000000008  0.2503639999999976
  0.4946580000000012  0.5037730000000025  0.0006070000000022
  0.7506389999999996  0.5005319999999998  0.2463389999999990
  0.7463290000000029  0.7488979999999970  0.0014510000000030
  0.4940020000000018  0.7513760000000005  0.2436390000000017
  0.0008849999999967  0.0008460000000028  0.4975540000000009
  0.2517479999999992  0.2515739999999980  0.4982120000000023
  0.0007379999999984  0.2522900000000021  0.7478869999999986
  0.5025660000000016  0.0018019999999979  0.4980329999999995
  0.7525369999999967  0.0015610000000024  0.7478880000000032
  0.7524590000000018  0.2507810000000035  0.4983390000000014
  0.5015110000000007  0.2549739999999971  0.7479009999999988
  0.0027929999999969  0.5000670000000014  0.4995690000000010
  0.2498909999999981  0.5026140000000012  0.7543340000000001
  0.2490719999999982  0.7480570000000029  0.5017690000000030
  0.0028709999999990  0.7500900000000001  0.7546030000000030
  0.5018320000000003  0.5020889999999980  0.4962950000000035
  0.7533570000000012  0.5012600000000020  0.7489530000000002
  0.7514600000000016  0.7500149999999977  0.4976699999999994
  0.4908069999999967  0.7572169999999971  0.7600690000000014
  0.2304880000000011  0.7292520000000025  0.0145240000000015
  0.5097340000000017  0.0092149999999975  0.0056590000000014
  0.2478389999999990  0.0007919999999970  0.7458770000000001
 
  0.00000000E+00  0.00000000E+00  0.00000000E+00
  0.00000000E+00  0.00000000E+00  0.00000000E+00
  0.00000000E+00  0.00000000E+00  0.00000000E+00
  0.00000000E+00  0.00000000E+00  0.00000000E+00
  0.00000000E+00  0.00000000E+00  0.00000000E+00
  0.00000000E+00  0.00000000E+00  0.00000000E+00
  0.00000000E+00  0.00000000E+00  0.00000000E+00
  0.00000000E+00  0.00000000E+00  0.00000000E+00
  0.00000000E+00  0.00000000E+00  0.00000000E+00
  0.00000000E+00  0.00000000E+00  0.00000000E+00
  0.00000000E+00  0.00000000E+00  0.00000000E+00
  0.00000000E+00  0.00000000E+00  0.00000000E+00
  0.00000000E+00  0.00000000E+00  0.00000000E+00
  0.00000000E+00  0.00000000E+00  0.00000000E+00
  0.00000000E+00  0.00000000E+00  0.00000000E+00
  0.00000000E+00  0.00000000E+00  0.00000000E+00
  0.00000000E+00  0.00000000E+00  0.00000000E+00
  0.00000000E+00  0.00000000E+00  0.00000000E+00
  0.00000000E+00  0.00000000E+00  0.00000000E+00
  0.00000000E+00  0.00000000E+00  0.00000000E+00
  0.00000000E+00  0.00000000E+00  0.00000000E+00
  0.00000000E+00  0.00000000E+00  0.00000000E+00
  0.00000000E+00  0.00000000E+00  0.00000000E+00
  0.00000000E+00  0.00000000E+00  0.00000000E+00
  0.00000000E+00  0.00000000E+00  0.00000000E+00
  0.00000000E+00  0.00000000E+00  0.00000000E+00
  0.00000000E+00  0.00000000E+00  0.00000000E+00
  0.00000000E+00  0.00000000E+00  0.00000000E+00
  0.00000000E+00  0.00000000E+00  0.00000000E+00
  0.00000000E+00  0.00000000E+00  0.00000000E+00
  0.00000000E+00  0.00000000E+00  0.00000000E+00
  0.00000000E+00  0.00000000E+00  0.00000000E+00
