Al4                                     
   1.00000000000000     
     4.0862661828397142    0.0000000000000000    0.0000000000000000
     0.0000000000000000    4.0862661828397142    0.0000000000000000
     0.0000000000000000    0.0000000000000000    4.0862661828397142
   La Cr W
   1  2  1
Direct
  0.0000000000000000  0.0000000000000000  0.0000000000000000
  0.5000000000000000  0.5000000000000000  0.0000000000000000
  0.0000000000000000  0.5000000000000000  0.5000000000000000
  0.5000000000000000  0.0000000000000000  0.5000000000000000
 
  0.00000000E+00  0.00000000E+00  0.00000000E+00
  0.00000000E+00  0.00000000E+00  0.00000000E+00
  0.00000000E+00  0.00000000E+00  0.00000000E+00
  0.00000000E+00  0.00000000E+00  0.00000000E+00
