POSCAR_01:FCC Al endpoint 1                       
1.0000000000
7.9894616391 0.0000000000 0.0000000000
0.0000000000 7.9894616391 0.0000000000
0.0000000000 0.0000000000 7.9894616391
   Al
31 
D
0.0018040439 0.0018040439 0.5000000000
0.0002165759 0.5038156821 -0.0000000000
0.0018040439 0.5022282142 0.5000000000
0.5038156821 0.0002165759 -0.0000000000
0.5022282142 0.0018040439 0.5000000000
0.5038156821 0.5038156821 -0.0000000000
0.5022282142 0.5022282142 0.5000000000
0.1931152836 0.1931152836 -0.0000000000
0.2526525113 0.2526525113 0.5000000000
0.2574148367 0.7466174214 -0.0000000000
0.2526525113 0.7513797467 0.5000000000
0.7466174214 0.2574148367 -0.0000000000
0.7513797467 0.2526525113 0.5000000000
0.7466174214 0.7466174214 -0.0000000000
0.7513797467 0.7513797467 0.5000000000
0.2574148367 0.0002165759 0.2571982607
0.2574148367 0.0002165759 0.7428017393
0.2526525113 0.5038156821 0.2524359354
0.2526525113 0.5038156821 0.7475640646
0.7466174214 0.0018040439 0.2556107928
0.7466174214 0.0018040439 0.7443892072
0.7513797467 0.5022282142 0.2508484674
0.7513797467 0.5022282142 0.7491515326
0.0002165759 0.2574148367 0.2571982607
0.0002165759 0.2574148367 0.7428017393
0.0018040439 0.7466174214 0.2556107928
0.0018040439 0.7466174214 0.7443892072
0.5038156821 0.2526525113 0.2524359354
0.5038156821 0.2526525113 0.7475640646
0.5022282142 0.7513797467 0.2508484674
0.5022282142 0.7513797467 0.7491515326
