Al4
1.0
4.087078 0.000000 0.000000
0.000000 4.087078 0.000000
0.000000 0.000000 4.087078
4
direct
0.000000 0.000000 0.000000 Al
0.500000 0.500000 0.000000 Al
0.000000 0.500000 0.500000 Al
0.500000 0.000000 0.500000 Al
