Al31                                    
   1.00000000000000     
     8.0870540000000002    0.0000000000000000    0.0000000000000000
     0.0000000000000000    8.0870540000000002    0.0000000000000000
     0.0000000000000000    0.0000000000000000    8.0870540000000002
   Al
  31
Direct
  0.0004497801249594  0.0000000000000000  0.0004497801249594
  0.2500000000000000  0.0000000000000000  0.2500000000000000
  0.2500000000000000  0.2425962718359119 -0.0074037281640881
 -0.0074037281640881  0.2425962718359119  0.2500000000000000
  0.4995502198750407  0.0000000000000000  0.0004497801249594
  0.7500000000000000  0.0000000000000000  0.2500000000000000
  0.7500000000000000  0.2504497801249593  0.0004497801249594
  0.5074037281640881  0.2425962718359119  0.2500000000000000
 -0.0074037281640881  0.5000000000000000 -0.0074037281640881
  0.2500000000000000  0.7574037281640881 -0.0074037281640881
 -0.0074037281640881  0.7574037281640881  0.2500000000000000
  0.5074037281640881  0.5000000000000000 -0.0074037281640881
  0.7500000000000000  0.5000000000000000  0.2500000000000000
  0.7500000000000000  0.7495502198750406  0.0004497801249594
  0.5074037281640881  0.7574037281640881  0.2500000000000000
  0.0004497801249594  0.0000000000000000  0.4995502198750407
  0.2500000000000000  0.0000000000000000  0.7500000000000000
  0.2500000000000000  0.2425962718359119  0.5074037281640881
  0.0004497801249594  0.2504497801249593  0.7500000000000000
  0.4995502198750407  0.0000000000000000  0.4995502198750407
  0.7500000000000000  0.0000000000000000  0.7500000000000000
  0.7500000000000000  0.2504497801249593  0.4995502198750407
  0.4995502198750407  0.2504497801249593  0.7500000000000000
 -0.0074037281640881  0.5000000000000000  0.5074037281640881
  0.2500000000000000  0.5000000000000000  0.7500000000000000
  0.2500000000000000  0.7574037281640881  0.5074037281640881
  0.0004497801249594  0.7495502198750406  0.7500000000000000
  0.5074037281640881  0.5000000000000000  0.5074037281640881
  0.7500000000000000  0.5000000000000000  0.7500000000000000
  0.7500000000000000  0.7495502198750406  0.4995502198750407
  0.4995502198750407  0.7495502198750406  0.7500000000000000
 
  0.00000000E+00  0.00000000E+00  0.00000000E+00
  0.00000000E+00  0.00000000E+00  0.00000000E+00
  0.00000000E+00  0.00000000E+00  0.00000000E+00
  0.00000000E+00  0.00000000E+00  0.00000000E+00
  0.00000000E+00  0.00000000E+00  0.00000000E+00
  0.00000000E+00  0.00000000E+00  0.00000000E+00
  0.00000000E+00  0.00000000E+00  0.00000000E+00
  0.00000000E+00  0.00000000E+00  0.00000000E+00
  0.00000000E+00  0.00000000E+00  0.00000000E+00
  0.00000000E+00  0.00000000E+00  0.00000000E+00
  0.00000000E+00  0.00000000E+00  0.00000000E+00
  0.00000000E+00  0.00000000E+00  0.00000000E+00
  0.00000000E+00  0.00000000E+00  0.00000000E+00
  0.00000000E+00  0.00000000E+00  0.00000000E+00
  0.00000000E+00  0.00000000E+00  0.00000000E+00
  0.00000000E+00  0.00000000E+00  0.00000000E+00
  0.00000000E+00  0.00000000E+00  0.00000000E+00
  0.00000000E+00  0.00000000E+00  0.00000000E+00
  0.00000000E+00  0.00000000E+00  0.00000000E+00
  0.00000000E+00  0.00000000E+00  0.00000000E+00
  0.00000000E+00  0.00000000E+00  0.00000000E+00
  0.00000000E+00  0.00000000E+00  0.00000000E+00
  0.00000000E+00  0.00000000E+00  0.00000000E+00
  0.00000000E+00  0.00000000E+00  0.00000000E+00
  0.00000000E+00  0.00000000E+00  0.00000000E+00
  0.00000000E+00  0.00000000E+00  0.00000000E+00
  0.00000000E+00  0.00000000E+00  0.00000000E+00
  0.00000000E+00  0.00000000E+00  0.00000000E+00
  0.00000000E+00  0.00000000E+00  0.00000000E+00
  0.00000000E+00  0.00000000E+00  0.00000000E+00
  0.00000000E+00  0.00000000E+00  0.00000000E+00
