Al31                                    
   1.00000000000000     
     8.0870540000000002    0.0000000000000000    0.0000000000000000
     0.0000000000000000    8.0870540000000002    0.0000000000000000
     0.0000000000000000    0.0000000000000000    8.0870540000000002
   Al
  31
Direct
  0.0000000000000000  0.0000000000000000  0.0000000000000000
  0.2504162995598232  0.0000000000000000  0.2504162995598232
  0.2504162995598232  0.2504162995598232  0.0000000000000000
  0.0000000000000000  0.2504162995598232  0.2504162995598232
  0.5000000000000000  0.0000000000000000  0.0000000000000000
  0.7495837004401767  0.0000000000000000  0.2504162995598232
  0.7495837004401767  0.2504162995598232  0.0000000000000000
  0.5000000000000000  0.2427281218052908  0.2427281218052908
  0.0000000000000000  0.5000000000000000  0.0000000000000000
  0.2427281218052908  0.5000000000000000  0.2427281218052908
  0.2504162995598232  0.7495837004401767  0.0000000000000000
  0.0000000000000000  0.7495837004401767  0.2504162995598232
  0.5000000000000000  0.5000000000000000  0.0000000000000000
  0.7572718781947093  0.5000000000000000  0.2427281218052908
  0.7495837004401767  0.7495837004401767  0.0000000000000000
  0.5000000000000000  0.7572718781947093  0.2427281218052908
  0.0000000000000000  0.0000000000000000  0.5000000000000000
  0.2504162995598232  0.0000000000000000  0.7495837004401767
  0.2427281218052908  0.2427281218052908  0.5000000000000000
  0.0000000000000000  0.2504162995598232  0.7495837004401767
  0.5000000000000000  0.0000000000000000  0.5000000000000000
  0.7495837004401767  0.0000000000000000  0.7495837004401767
  0.7572718781947093  0.2427281218052908  0.5000000000000000
  0.5000000000000000  0.2427281218052908  0.7572718781947093
  0.0000000000000000  0.5000000000000000  0.5000000000000000
  0.2427281218052908  0.5000000000000000  0.7572718781947093
  0.2427281218052908  0.7572718781947093  0.5000000000000000
  0.0000000000000000  0.7495837004401767  0.7495837004401767
  0.7572718781947093  0.5000000000000000  0.7572718781947093
  0.7572718781947093  0.7572718781947093  0.5000000000000000
  0.5000000000000000  0.7572718781947093  0.7572718781947093
 
  0.00000000E+00  0.00000000E+00  0.00000000E+00
  0.00000000E+00  0.00000000E+00  0.00000000E+00
  0.00000000E+00  0.00000000E+00  0.00000000E+00
  0.00000000E+00  0.00000000E+00  0.00000000E+00
  0.00000000E+00  0.00000000E+00  0.00000000E+00
  0.00000000E+00  0.00000000E+00  0.00000000E+00
  0.00000000E+00  0.00000000E+00  0.00000000E+00
  0.00000000E+00  0.00000000E+00  0.00000000E+00
  0.00000000E+00  0.00000000E+00  0.00000000E+00
  0.00000000E+00  0.00000000E+00  0.00000000E+00
  0.00000000E+00  0.00000000E+00  0.00000000E+00
  0.00000000E+00  0.00000000E+00  0.00000000E+00
  0.00000000E+00  0.00000000E+00  0.00000000E+00
  0.00000000E+00  0.00000000E+00  0.00000000E+00
  0.00000000E+00  0.00000000E+00  0.00000000E+00
  0.00000000E+00  0.00000000E+00  0.00000000E+00
  0.00000000E+00  0.00000000E+00  0.00000000E+00
  0.00000000E+00  0.00000000E+00  0.00000000E+00
  0.00000000E+00  0.00000000E+00  0.00000000E+00
  0.00000000E+00  0.00000000E+00  0.00000000E+00
  0.00000000E+00  0.00000000E+00  0.00000000E+00
  0.00000000E+00  0.00000000E+00  0.00000000E+00
  0.00000000E+00  0.00000000E+00  0.00000000E+00
  0.00000000E+00  0.00000000E+00  0.00000000E+00
  0.00000000E+00  0.00000000E+00  0.00000000E+00
  0.00000000E+00  0.00000000E+00  0.00000000E+00
  0.00000000E+00  0.00000000E+00  0.00000000E+00
  0.00000000E+00  0.00000000E+00  0.00000000E+00
  0.00000000E+00  0.00000000E+00  0.00000000E+00
  0.00000000E+00  0.00000000E+00  0.00000000E+00
  0.00000000E+00  0.00000000E+00  0.00000000E+00
