Ga3 As5
1.0
5.626600 0.000000 0.000000
0.000000 5.626600 0.000000
0.000000 0.000000 5.626600
Ga As
3 5
direct
0.500000 0.500000 0.000000 Ga
0.000000 0.500000 0.500000 Ga
0.500000 0.000000 0.500000 Ga
0.000000 0.000000 0.000000 As
0.256610 0.256610 0.256610 As
0.743390 0.743390 0.256610 As
0.256610 0.743390 0.743390 As
0.743390 0.256610 0.743390 As

0.000000 0.000000 0.000000
0.000000 0.000000 0.000000
0.000000 0.000000 0.000000
0.000000 0.000000 0.000000
0.000000 0.000000 0.000000
0.000000 0.000000 0.000000
0.000000 0.000000 0.000000
0.000000 0.000000 0.000000
