Al31                                    
   1.00000000000000     
     8.0870519999999999    0.0000000000000000    0.0000000000000000
     0.0000000000000000    8.0870519999999999    0.0000000000000000
     0.0000000000000000    0.0000000000000000    8.0870519999999999
   Al
  31
Direct
  0.0000000000000000  0.0000000000000000  0.0000000000000000
  0.2494399502334995  0.0000000000000000  0.2494399502334995
  0.2494399502334995  0.2494399502334995  0.0000000000000000
  0.0000000000000000  0.2494399502334995  0.2494399502334995
  0.5000000000000000  0.0000000000000000  0.0000000000000000
  0.7505600497665005  0.0000000000000000  0.2494399502334995
  0.7505600497665005  0.2494399502334995  0.0000000000000000
  0.5000000000000000  0.2532692987453080  0.2532692987453080
  0.0000000000000000  0.5000000000000000  0.0000000000000000
  0.2532692987453080  0.5000000000000000  0.2532692987453080
  0.2494399502334995  0.7505600497665005  0.0000000000000000
  0.0000000000000000  0.7505600497665005  0.2494399502334995
  0.5000000000000000  0.5000000000000000  0.0000000000000000
  0.7467307012546921  0.5000000000000000  0.2532692987453080
  0.7505600497665005  0.7505600497665005  0.0000000000000000
  0.5000000000000000  0.7467307012546921  0.2532692987453080
  0.0000000000000000  0.0000000000000000  0.5000000000000000
  0.2494399502334995  0.0000000000000000  0.7505600497665005
  0.2532692987453080  0.2532692987453080  0.5000000000000000
  0.0000000000000000  0.2494399502334995  0.7505600497665005
  0.5000000000000000  0.0000000000000000  0.5000000000000000
  0.7505600497665005  0.0000000000000000  0.7505600497665005
  0.7467307012546921  0.2532692987453080  0.5000000000000000
  0.5000000000000000  0.2532692987453080  0.7467307012546921
  0.0000000000000000  0.5000000000000000  0.5000000000000000
  0.2532692987453080  0.5000000000000000  0.7467307012546921
  0.2532692987453080  0.7467307012546921  0.5000000000000000
  0.0000000000000000  0.7505600497665005  0.7505600497665005
  0.7467307012546921  0.5000000000000000  0.7467307012546921
  0.7467307012546921  0.7467307012546921  0.5000000000000000
  0.5000000000000000  0.7467307012546921  0.7467307012546921
 
  0.00000000E+00  0.00000000E+00  0.00000000E+00
  0.00000000E+00  0.00000000E+00  0.00000000E+00
  0.00000000E+00  0.00000000E+00  0.00000000E+00
  0.00000000E+00  0.00000000E+00  0.00000000E+00
  0.00000000E+00  0.00000000E+00  0.00000000E+00
  0.00000000E+00  0.00000000E+00  0.00000000E+00
  0.00000000E+00  0.00000000E+00  0.00000000E+00
  0.00000000E+00  0.00000000E+00  0.00000000E+00
  0.00000000E+00  0.00000000E+00  0.00000000E+00
  0.00000000E+00  0.00000000E+00  0.00000000E+00
  0.00000000E+00  0.00000000E+00  0.00000000E+00
  0.00000000E+00  0.00000000E+00  0.00000000E+00
  0.00000000E+00  0.00000000E+00  0.00000000E+00
  0.00000000E+00  0.00000000E+00  0.00000000E+00
  0.00000000E+00  0.00000000E+00  0.00000000E+00
  0.00000000E+00  0.00000000E+00  0.00000000E+00
  0.00000000E+00  0.00000000E+00  0.00000000E+00
  0.00000000E+00  0.00000000E+00  0.00000000E+00
  0.00000000E+00  0.00000000E+00  0.00000000E+00
  0.00000000E+00  0.00000000E+00  0.00000000E+00
  0.00000000E+00  0.00000000E+00  0.00000000E+00
  0.00000000E+00  0.00000000E+00  0.00000000E+00
  0.00000000E+00  0.00000000E+00  0.00000000E+00
  0.00000000E+00  0.00000000E+00  0.00000000E+00
  0.00000000E+00  0.00000000E+00  0.00000000E+00
  0.00000000E+00  0.00000000E+00  0.00000000E+00
  0.00000000E+00  0.00000000E+00  0.00000000E+00
  0.00000000E+00  0.00000000E+00  0.00000000E+00
  0.00000000E+00  0.00000000E+00  0.00000000E+00
  0.00000000E+00  0.00000000E+00  0.00000000E+00
  0.00000000E+00  0.00000000E+00  0.00000000E+00
