Al31
1.0
8.087052 0.000000 0.000000
0.000000 8.087052 0.000000
0.000000 0.000000 8.087052
Al
31
direct
0.000000 0.000000 0.000000 Al
0.250434 0.000000 0.250434 Al
0.250434 0.250434 0.000000 Al
0.000000 0.250434 0.250434 Al
0.500000 0.000000 0.000000 Al
0.749566 0.000000 0.250434 Al
0.749566 0.250434 0.000000 Al
0.500000 0.242655 0.242655 Al
0.000000 0.500000 0.000000 Al
0.242655 0.500000 0.242655 Al
0.250434 0.749566 0.000000 Al
0.000000 0.749566 0.250434 Al
0.500000 0.500000 0.000000 Al
0.757345 0.500000 0.242655 Al
0.749566 0.749566 0.000000 Al
0.500000 0.757345 0.242655 Al
0.000000 0.000000 0.500000 Al
0.250434 0.000000 0.749566 Al
0.242655 0.242655 0.500000 Al
0.000000 0.250434 0.749566 Al
0.500000 0.000000 0.500000 Al
0.749566 0.000000 0.749566 Al
0.757345 0.242655 0.500000 Al
0.500000 0.242655 0.757345 Al
0.000000 0.500000 0.500000 Al
0.242655 0.500000 0.757345 Al
0.242655 0.757345 0.500000 Al
0.000000 0.749566 0.749566 Al
0.757345 0.500000 0.757345 Al
0.757345 0.757345 0.500000 Al
0.500000 0.757345 0.757345 Al

0.000000 0.000000 0.000000
0.000000 0.000000 0.000000
0.000000 0.000000 0.000000
0.000000 0.000000 0.000000
0.000000 0.000000 0.000000
0.000000 0.000000 0.000000
0.000000 0.000000 0.000000
0.000000 0.000000 0.000000
0.000000 0.000000 0.000000
0.000000 0.000000 0.000000
0.000000 0.000000 0.000000
0.000000 0.000000 0.000000
0.000000 0.000000 0.000000
0.000000 0.000000 0.000000
0.000000 0.000000 0.000000
0.000000 0.000000 0.000000
0.000000 0.000000 0.000000
0.000000 0.000000 0.000000
0.000000 0.000000 0.000000
0.000000 0.000000 0.000000
0.000000 0.000000 0.000000
0.000000 0.000000 0.000000
0.000000 0.000000 0.000000
0.000000 0.000000 0.000000
0.000000 0.000000 0.000000
0.000000 0.000000 0.000000
0.000000 0.000000 0.000000
0.000000 0.000000 0.000000
0.000000 0.000000 0.000000
0.000000 0.000000 0.000000
0.000000 0.000000 0.000000
