Al3                                     
   1.00000000000000     
     3.5000000000000000    0.0000000000000000    0.0000000000000000
     0.0000000000000000    3.5000000000000000    0.0000000000000000
     0.0000000000000000    0.0000000000000000    3.5000000000000000
   Al
   3
Selective dynamics
Direct
  0.2500000000000000  0.2471428571428571  0.0000000000000000   F   T   F
  0.9680450000000036  0.5319549999999964  0.5000000000000000   F   F   F
  0.5319549999999964  0.9680450000000036  0.5000000000000000   F   F   F
 
  0.00000000E+00  0.00000000E+00  0.00000000E+00
  0.00000000E+00  0.00000000E+00  0.00000000E+00
  0.00000000E+00  0.00000000E+00  0.00000000E+00
