EDIFFG = 5e-2
ENCUT = 300
IALGO = 48
IBRION = 1
ISIF = 2
ISMEAR = 1
LCHARG = False
LCLIMB = True
LWAVE = False
NELECT = 119.0
NSW = 191
POTIM = 0.5
PREC = Accurate
SIGMA = 0.2
SPRING = -5
IMAGES=3
