Al29 Ag1 Pt1 Au1
1.0
8.087040 0.000000 0.000000
0.000000 8.087040 0.000000
0.000000 0.000000 8.087040
Al Au Pt Ag
29 1 1 1
direct
0.005941 -0.008374 0.999369 Al
0.252819 0.990703 0.242013 Al
0.250236 0.245482 1.000297 Al
1.000674 0.250969 0.248639 Al
0.753708 0.000546 0.250759 Al
0.751638 0.253384 -0.001054 Al
0.502518 0.253692 0.249931 Al
0.996178 0.498835 1.000934 Al
0.249693 0.498622 0.251577 Al
0.998382 0.747070 0.250364 Al
0.494658 0.503773 0.000607 Al
0.750639 0.500532 0.246339 Al
0.746329 0.748898 0.001451 Al
0.494002 0.751376 0.243639 Al
1.000885 1.000846 0.497554 Al
0.251748 0.251574 0.498212 Al
1.000738 0.252290 0.747887 Al
0.502566 0.001802 0.498033 Al
0.752537 0.001561 0.747888 Al
0.752459 0.250781 0.498339 Al
0.501511 0.254974 0.747901 Al
1.002793 0.500067 0.499569 Al
0.249891 0.502614 0.754334 Al
0.249072 0.748057 0.501769 Al
1.002871 0.750090 0.754603 Al
0.501832 0.502089 0.496295 Al
0.753357 0.501260 0.748953 Al
0.751460 0.750015 0.497670 Al
0.490807 0.757217 0.760069 Al
0.500000 0.000000 0.000000 Au
0.229167 0.739583 0.010417 Pt
0.239583 0.000000 0.750000 Ag

0.000000 0.000000 0.000000
0.000000 0.000000 0.000000
0.000000 0.000000 0.000000
0.000000 0.000000 0.000000
0.000000 0.000000 0.000000
0.000000 0.000000 0.000000
0.000000 0.000000 0.000000
0.000000 0.000000 0.000000
0.000000 0.000000 0.000000
0.000000 0.000000 0.000000
0.000000 0.000000 0.000000
0.000000 0.000000 0.000000
0.000000 0.000000 0.000000
0.000000 0.000000 0.000000
0.000000 0.000000 0.000000
0.000000 0.000000 0.000000
0.000000 0.000000 0.000000
0.000000 0.000000 0.000000
0.000000 0.000000 0.000000
0.000000 0.000000 0.000000
0.000000 0.000000 0.000000
0.000000 0.000000 0.000000
0.000000 0.000000 0.000000
0.000000 0.000000 0.000000
0.000000 0.000000 0.000000
0.000000 0.000000 0.000000
0.000000 0.000000 0.000000
0.000000 0.000000 0.000000
0.000000 0.000000 0.000000
0.000000 0.000000 0.000000
0.000000 0.000000 0.000000
0.000000 0.000000 0.000000
