POSCAR_03:FCC Al endpoint 1                       
1.0000000000
7.9894616391 0.0000000000 0.0000000000
0.0000000000 7.9894616391 0.0000000000
0.0000000000 0.0000000000 7.9894616391
   Al
31 
D
0.0054121317 0.0054121317 0.5000000000
0.0006497278 0.5114470464 0.0000000000
0.0054121317 0.5066846425 0.5000000000
0.5114470464 0.0006497278 0.0000000000
0.5066846425 0.0054121317 0.5000000000
0.5114470464 0.5114470464 0.0000000000
0.5066846425 0.5066846425 0.5000000000
0.0649492970 0.0649492970 0.0000000000
0.2562605145 0.2562605145 0.5000000000
0.2578479563 0.7542488179 0.0000000000
0.2562605145 0.7558362597 0.5000000000
0.7542488179 0.2578479563 0.0000000000
0.7558362597 0.2562605145 0.5000000000
0.7542488179 0.7542488179 0.0000000000
0.7558362597 0.7558362597 0.5000000000
0.2578479563 0.0006497278 0.2571982285
0.2578479563 0.0006497278 0.7428017715
0.2562605145 0.5114470464 0.2556107867
0.2562605145 0.5114470464 0.7443892133
0.7542488179 0.0054121317 0.2524358246
0.7542488179 0.0054121317 0.7475641754
0.7558362597 0.5066846425 0.2508483829
0.7558362597 0.5066846425 0.7491516171
0.0006497278 0.2578479563 0.2571982285
0.0006497278 0.2578479563 0.7428017715
0.0054121317 0.7542488179 0.2524358246
0.0054121317 0.7542488179 0.7475641754
0.5114470464 0.2562605145 0.2556107867
0.5114470464 0.2562605145 0.7443892133
0.5066846425 0.7558362597 0.2508483829
0.5066846425 0.7558362597 0.7491516171
