Mg1 Al30
1.0
8.087052 0.000000 0.000000
0.000000 8.087052 0.000000
0.000000 0.000000 8.087052
Al Mg
30 1
direct
0.998954 0.000000 0.998954 Al
0.249213 0.000000 0.249213 Al
0.251504 0.254402 0.005409 Al
0.005409 0.254402 0.251504 Al
0.500118 0.000000 0.996636 Al
0.753839 0.000000 0.250361 Al
0.750973 0.249055 0.997935 Al
0.500219 0.247486 0.245441 Al
0.004326 0.500000 0.004326 Al
0.251504 0.745598 0.005409 Al
0.005409 0.745598 0.251504 Al
0.498757 0.500000 0.003126 Al
0.752583 0.500000 0.247510 Al
0.750973 0.750945 0.997935 Al
0.500219 0.752514 0.245441 Al
0.996636 0.000000 0.500118 Al
0.250361 0.000000 0.753839 Al
0.245441 0.247486 0.500219 Al
0.997935 0.249055 0.750973 Al
0.501752 0.000000 0.501752 Al
0.750437 0.000000 0.750437 Al
0.749667 0.249610 0.499977 Al
0.499977 0.249610 0.749667 Al
0.003126 0.500000 0.498757 Al
0.247510 0.500000 0.752583 Al
0.245441 0.752514 0.500219 Al
0.997935 0.750945 0.750973 Al
0.750932 0.500000 0.750932 Al
0.749667 0.750390 0.499977 Al
0.499977 0.750390 0.749667 Al
0.489211 0.500000 0.489211 Mg

0.000000 0.000000 0.000000
0.000000 0.000000 0.000000
0.000000 0.000000 0.000000
0.000000 0.000000 0.000000
0.000000 0.000000 0.000000
0.000000 0.000000 0.000000
0.000000 0.000000 0.000000
0.000000 0.000000 0.000000
0.000000 0.000000 0.000000
0.000000 0.000000 0.000000
0.000000 0.000000 0.000000
0.000000 0.000000 0.000000
0.000000 0.000000 0.000000
0.000000 0.000000 0.000000
0.000000 0.000000 0.000000
0.000000 0.000000 0.000000
0.000000 0.000000 0.000000
0.000000 0.000000 0.000000
0.000000 0.000000 0.000000
0.000000 0.000000 0.000000
0.000000 0.000000 0.000000
0.000000 0.000000 0.000000
0.000000 0.000000 0.000000
0.000000 0.000000 0.000000
0.000000 0.000000 0.000000
0.000000 0.000000 0.000000
0.000000 0.000000 0.000000
0.000000 0.000000 0.000000
0.000000 0.000000 0.000000
0.000000 0.000000 0.000000
0.000000 0.000000 0.000000
