POSCAR_01:FCC Al endpoint 1             
   1.00000000000000     
     7.9894616391000000    0.0000000000000000    0.0000000000000000
     0.0000000000000000    7.9894616391000000    0.0000000000000000
     0.0000000000000000    0.0000000000000000    7.9894616391000000
   Al
  31
Direct
  0.0046263756599173  0.0046263756599173  0.5000000000000000
  0.0013995719276147  0.4903779303449636  0.0000000000000000
  0.0008331861002008  0.5031917173538855  0.5000000000000000
  0.4903779303449636  0.0013995719276147  0.0000000000000000
  0.5031917173538855  0.0008331861002008  0.5000000000000000
  0.5016779891185654  0.5016779891185654  0.0000000000000000
  0.5095895982064086  0.5095895982064086  0.5000000000000000
  0.1976756811456596  0.1976756811456596  0.0000000000000000
  0.2540564542920506  0.2540564542920506  0.5000000000000000
  0.2465354425159389  0.7660234198053255  0.0000000000000000
  0.2598966633285004  0.7455137624857375  0.5000000000000000
  0.7660234198053255  0.2465354425159389  0.0000000000000000
  0.7455137624857375  0.2598966633285004  0.5000000000000000
  0.7516683625071934  0.7516683625071934  0.0000000000000000
  0.7423238172713407  0.7423238172713407  0.5000000000000000
  0.2585526620390403 -0.0024809707454378  0.2599991571810933
  0.2585526620390403 -0.0024809707454378  0.7400008428189068
  0.2531742781930924  0.4985119435603165  0.2516571355756607
  0.2531742781930924  0.4985119435603165  0.7483428644243388
  0.7504535219959890 -0.0010999722463351  0.2508956810935728
  0.7504535219959890 -0.0010999722463351  0.7491043189064261
  0.7523623592240535  0.5028311918749883  0.2616735957862912
  0.7523623592240535  0.5028311918749883  0.7383264042137084
 -0.0024809707454378  0.2585526620390403  0.2599991571810933
 -0.0024809707454378  0.2585526620390403  0.7400008428189068
 -0.0010999722463351  0.7504535219959890  0.2508956810935728
 -0.0010999722463351  0.7504535219959890  0.7491043189064261
  0.4985119435603165  0.2531742781930924  0.2516571355756607
  0.4985119435603165  0.2531742781930924  0.7483428644243388
  0.5028311918749883  0.7523623592240535  0.2616735957862912
  0.5028311918749883  0.7523623592240535  0.7383264042137084
 
  0.00000000E+00  0.00000000E+00  0.00000000E+00
  0.00000000E+00  0.00000000E+00  0.00000000E+00
  0.00000000E+00  0.00000000E+00  0.00000000E+00
  0.00000000E+00  0.00000000E+00  0.00000000E+00
  0.00000000E+00  0.00000000E+00  0.00000000E+00
  0.00000000E+00  0.00000000E+00  0.00000000E+00
  0.00000000E+00  0.00000000E+00  0.00000000E+00
  0.00000000E+00  0.00000000E+00  0.00000000E+00
  0.00000000E+00  0.00000000E+00  0.00000000E+00
  0.00000000E+00  0.00000000E+00  0.00000000E+00
  0.00000000E+00  0.00000000E+00  0.00000000E+00
  0.00000000E+00  0.00000000E+00  0.00000000E+00
  0.00000000E+00  0.00000000E+00  0.00000000E+00
  0.00000000E+00  0.00000000E+00  0.00000000E+00
  0.00000000E+00  0.00000000E+00  0.00000000E+00
  0.00000000E+00  0.00000000E+00  0.00000000E+00
  0.00000000E+00  0.00000000E+00  0.00000000E+00
  0.00000000E+00  0.00000000E+00  0.00000000E+00
  0.00000000E+00  0.00000000E+00  0.00000000E+00
  0.00000000E+00  0.00000000E+00  0.00000000E+00
  0.00000000E+00  0.00000000E+00  0.00000000E+00
  0.00000000E+00  0.00000000E+00  0.00000000E+00
  0.00000000E+00  0.00000000E+00  0.00000000E+00
  0.00000000E+00  0.00000000E+00  0.00000000E+00
  0.00000000E+00  0.00000000E+00  0.00000000E+00
  0.00000000E+00  0.00000000E+00  0.00000000E+00
  0.00000000E+00  0.00000000E+00  0.00000000E+00
  0.00000000E+00  0.00000000E+00  0.00000000E+00
  0.00000000E+00  0.00000000E+00  0.00000000E+00
  0.00000000E+00  0.00000000E+00  0.00000000E+00
  0.00000000E+00  0.00000000E+00  0.00000000E+00
