Mg1 Al32
1.0
8.087040 0.000000 0.000000
0.000000 8.087040 0.000000
0.000000 0.000000 8.087040
Al Mg
32 1
direct
0.000904 0.000904 0.003773 Al
0.247805 0.000663 0.250674 Al
0.253223 0.253223 -0.001886 Al
0.000663 0.247805 0.250674 Al
0.498368 0.996026 1.004520 Al
0.748057 0.009111 0.247459 Al
0.742638 0.250007 0.006562 Al
0.495205 0.242031 0.250525 Al
0.996026 0.498368 1.004520 Al
0.242031 0.495205 0.250525 Al
0.250007 0.742638 0.006562 Al
0.009111 0.748057 0.247459 Al
0.503160 0.503160 1.026990 Al
0.757116 0.492929 0.246095 Al
0.751582 0.751582 0.022402 Al
0.492929 0.757116 0.246095 Al
0.996026 0.996026 0.495499 Al
0.238965 0.009111 0.745187 Al
0.253073 0.253073 0.497754 Al
0.009111 0.238965 0.745187 Al
0.503160 0.993239 0.494666 Al
0.762625 0.024950 0.754131 Al
0.746074 0.248644 0.495478 Al
0.492929 0.212344 0.748622 Al
0.993239 0.503160 0.494666 Al
0.212344 0.492929 0.748622 Al
0.248644 0.746074 0.495478 Al
0.024950 0.762625 0.754131 Al
0.504683 0.504683 0.470932 Al
0.785660 0.457118 0.751909 Al
0.749360 0.749360 0.459667 Al
0.457118 0.785660 0.751909 Al
0.605916 0.605916 0.678050 Mg

0.000000 0.000000 0.000000
0.000000 0.000000 0.000000
0.000000 0.000000 0.000000
0.000000 0.000000 0.000000
0.000000 0.000000 0.000000
0.000000 0.000000 0.000000
0.000000 0.000000 0.000000
0.000000 0.000000 0.000000
0.000000 0.000000 0.000000
0.000000 0.000000 0.000000
0.000000 0.000000 0.000000
0.000000 0.000000 0.000000
0.000000 0.000000 0.000000
0.000000 0.000000 0.000000
0.000000 0.000000 0.000000
0.000000 0.000000 0.000000
0.000000 0.000000 0.000000
0.000000 0.000000 0.000000
0.000000 0.000000 0.000000
0.000000 0.000000 0.000000
0.000000 0.000000 0.000000
0.000000 0.000000 0.000000
0.000000 0.000000 0.000000
0.000000 0.000000 0.000000
0.000000 0.000000 0.000000
0.000000 0.000000 0.000000
0.000000 0.000000 0.000000
0.000000 0.000000 0.000000
0.000000 0.000000 0.000000
0.000000 0.000000 0.000000
0.000000 0.000000 0.000000
0.000000 0.000000 0.000000
0.000000 0.000000 0.000000
