Al                                      
   1.00000000000000     
    10.9063935956658007    0.0000000000000000    0.0000000000000000
     0.0000000000000000   10.9063935956658007    0.0000000000000000
     0.0000000000000000    0.0000000000000000   10.9063935956658025
   Al   Mg
     1   107
Direct
  0.0000000000000000  0.0000000000000000  0.0000000000000000
  0.1675129390029966  0.0000000000000000  0.1675129390029966
  0.0000000000000000  0.0000000000000000  0.3339565056733633
  0.0000000000000000  0.0000000000000000  0.6660434943266367
  0.0000000000000000  0.3339565056733633  0.0000000000000000
  0.0000000000000000  0.3337783344946672  0.3337783344946672
  0.0000000000000000  0.3337783344946672  0.6662216655053328
  0.0000000000000000  0.6660434943266367  0.0000000000000000
  0.0000000000000000  0.6662216655053328  0.3337783344946672
  0.0000000000000000  0.6662216655053328  0.6662216655053328
  0.3339565056733633  0.0000000000000000  0.0000000000000000
  0.3337783344946672  0.0000000000000000  0.3337783344946672
  0.3337783344946672  0.0000000000000000  0.6662216655053328
  0.3337783344946672  0.3337783344946672  0.0000000000000000
  0.3336095910832455  0.3336095910832455  0.3336095910832455
  0.3336095910832455  0.3336095910832455  0.6663904089167545
  0.3337783344946672  0.6662216655053328  0.0000000000000000
  0.3336095910832455  0.6663904089167545  0.3336095910832455
  0.3336095910832455  0.6663904089167545  0.6663904089167545
  0.6660434943266367  0.0000000000000000  0.0000000000000000
  0.6662216655053328  0.0000000000000000  0.3337783344946672
  0.6662216655053328  0.0000000000000000  0.6662216655053328
  0.6662216655053328  0.3337783344946672  0.0000000000000000
  0.6663904089167545  0.3336095910832455  0.3336095910832455
  0.6663904089167545  0.3336095910832455  0.6663904089167545
  0.6662216655053328  0.6662216655053328  0.0000000000000000
  0.6663904089167545  0.6663904089167545  0.3336095910832455
  0.6663904089167545  0.6663904089167545  0.6663904089167545
  0.0000000000000000  0.1675129390029966  0.1675129390029966
  0.0000000000000000  0.1669837065985789  0.5000000000000000
  0.0000000000000000  0.1675129390029966  0.8324870609970034
  0.0000000000000000  0.5000000000000000  0.1669837065985789
  0.0000000000000000  0.5000000000000000  0.5000000000000000
  0.0000000000000000  0.5000000000000000  0.8330162934014211
  0.0000000000000000  0.8324870609970034  0.1675129390029966
  0.0000000000000000  0.8330162934014211  0.5000000000000000
  0.0000000000000000  0.8324870609970034  0.8324870609970034
  0.3337168844989549  0.1670446488556365  0.1670446488556365
  0.3335855506135914  0.1668677346926515  0.5000000000000000
  0.3337168844989549  0.1670446488556365  0.8329553511443635
  0.3335855506135914  0.5000000000000000  0.1668677346926515
  0.3335181099829612  0.5000000000000000  0.5000000000000000
  0.3335855506135914  0.5000000000000000  0.8331322653073485
  0.3337168844989549  0.8329553511443635  0.1670446488556365
  0.3335855506135914  0.8331322653073485  0.5000000000000000
  0.3337168844989549  0.8329553511443635  0.8329553511443635
  0.6662831155010451  0.1670446488556365  0.1670446488556365
  0.6664144493864086  0.1668677346926515  0.5000000000000000
  0.6662831155010451  0.1670446488556365  0.8329553511443635
  0.6664144493864086  0.5000000000000000  0.1668677346926515
  0.6664818900170388  0.5000000000000000  0.5000000000000000
  0.6664144493864086  0.5000000000000000  0.8331322653073485
  0.6662831155010451  0.8329553511443635  0.1670446488556365
  0.6664144493864086  0.8331322653073485  0.5000000000000000
  0.6662831155010451  0.8329553511443635  0.8329553511443635
  0.1669837065985789  0.0000000000000000  0.5000000000000000
  0.1675129390029966  0.0000000000000000  0.8324870609970034
  0.1670446488556365  0.3337168844989549  0.1670446488556365
  0.1668677346926515  0.3335855506135914  0.5000000000000000
  0.1670446488556365  0.3337168844989549  0.8329553511443635
  0.1670446488556365  0.6662831155010451  0.1670446488556365
  0.1668677346926515  0.6664144493864086  0.5000000000000000
  0.1670446488556365  0.6662831155010451  0.8329553511443635
  0.5000000000000000  0.0000000000000000  0.1669837065985789
  0.5000000000000000  0.0000000000000000  0.5000000000000000
  0.5000000000000000  0.0000000000000000  0.8330162934014211
  0.5000000000000000  0.3335855506135914  0.1668677346926515
  0.5000000000000000  0.3335181099829612  0.5000000000000000
  0.5000000000000000  0.3335855506135914  0.8331322653073485
  0.5000000000000000  0.6664144493864086  0.1668677346926515
  0.5000000000000000  0.6664818900170388  0.5000000000000000
  0.5000000000000000  0.6664144493864086  0.8331322653073485
  0.8324870609970034  0.0000000000000000  0.1675129390029966
  0.8330162934014211  0.0000000000000000  0.5000000000000000
  0.8324870609970034  0.0000000000000000  0.8324870609970034
  0.8329553511443635  0.3337168844989549  0.1670446488556365
  0.8331322653073485  0.3335855506135914  0.5000000000000000
  0.8329553511443635  0.3337168844989549  0.8329553511443635
  0.8329553511443635  0.6662831155010451  0.1670446488556365
  0.8331322653073485  0.6664144493864086  0.5000000000000000
  0.8329553511443635  0.6662831155010451  0.8329553511443635
  0.1675129390029966  0.1675129390029966  0.0000000000000000
  0.1670446488556365  0.1670446488556365  0.3337168844989549
  0.1670446488556365  0.1670446488556365  0.6662831155010451
  0.1669837065985789  0.5000000000000000  0.0000000000000000
  0.1668677346926515  0.5000000000000000  0.3335855506135914
  0.1668677346926515  0.5000000000000000  0.6664144493864086
  0.1675129390029966  0.8324870609970034  0.0000000000000000
  0.1670446488556365  0.8329553511443635  0.3337168844989549
  0.1670446488556365  0.8329553511443635  0.6662831155010451
  0.5000000000000000  0.1669837065985789  0.0000000000000000
  0.5000000000000000  0.1668677346926515  0.3335855506135914
  0.5000000000000000  0.1668677346926515  0.6664144493864086
  0.5000000000000000  0.5000000000000000  0.0000000000000000
  0.5000000000000000  0.5000000000000000  0.3335181099829612
  0.5000000000000000  0.5000000000000000  0.6664818900170388
  0.5000000000000000  0.8330162934014211  0.0000000000000000
  0.5000000000000000  0.8331322653073485  0.3335855506135914
  0.5000000000000000  0.8331322653073485  0.6664144493864086
  0.8324870609970034  0.1675129390029966  0.0000000000000000
  0.8329553511443635  0.1670446488556365  0.3337168844989549
  0.8329553511443635  0.1670446488556365  0.6662831155010451
  0.8330162934014211  0.5000000000000000  0.0000000000000000
  0.8331322653073485  0.5000000000000000  0.3335855506135914
  0.8331322653073485  0.5000000000000000  0.6664144493864086
  0.8324870609970034  0.8324870609970034  0.0000000000000000
  0.8329553511443635  0.8329553511443635  0.3337168844989549
  0.8329553511443635  0.8329553511443635  0.6662831155010451
 
  0.00000000E+00  0.00000000E+00  0.00000000E+00
  0.00000000E+00  0.00000000E+00  0.00000000E+00
  0.00000000E+00  0.00000000E+00  0.00000000E+00
  0.00000000E+00  0.00000000E+00  0.00000000E+00
  0.00000000E+00  0.00000000E+00  0.00000000E+00
  0.00000000E+00  0.00000000E+00  0.00000000E+00
  0.00000000E+00  0.00000000E+00  0.00000000E+00
  0.00000000E+00  0.00000000E+00  0.00000000E+00
  0.00000000E+00  0.00000000E+00  0.00000000E+00
  0.00000000E+00  0.00000000E+00  0.00000000E+00
  0.00000000E+00  0.00000000E+00  0.00000000E+00
  0.00000000E+00  0.00000000E+00  0.00000000E+00
  0.00000000E+00  0.00000000E+00  0.00000000E+00
  0.00000000E+00  0.00000000E+00  0.00000000E+00
  0.00000000E+00  0.00000000E+00  0.00000000E+00
  0.00000000E+00  0.00000000E+00  0.00000000E+00
  0.00000000E+00  0.00000000E+00  0.00000000E+00
  0.00000000E+00  0.00000000E+00  0.00000000E+00
  0.00000000E+00  0.00000000E+00  0.00000000E+00
  0.00000000E+00  0.00000000E+00  0.00000000E+00
  0.00000000E+00  0.00000000E+00  0.00000000E+00
  0.00000000E+00  0.00000000E+00  0.00000000E+00
  0.00000000E+00  0.00000000E+00  0.00000000E+00
  0.00000000E+00  0.00000000E+00  0.00000000E+00
  0.00000000E+00  0.00000000E+00  0.00000000E+00
  0.00000000E+00  0.00000000E+00  0.00000000E+00
  0.00000000E+00  0.00000000E+00  0.00000000E+00
  0.00000000E+00  0.00000000E+00  0.00000000E+00
  0.00000000E+00  0.00000000E+00  0.00000000E+00
  0.00000000E+00  0.00000000E+00  0.00000000E+00
  0.00000000E+00  0.00000000E+00  0.00000000E+00
  0.00000000E+00  0.00000000E+00  0.00000000E+00
  0.00000000E+00  0.00000000E+00  0.00000000E+00
  0.00000000E+00  0.00000000E+00  0.00000000E+00
  0.00000000E+00  0.00000000E+00  0.00000000E+00
  0.00000000E+00  0.00000000E+00  0.00000000E+00
  0.00000000E+00  0.00000000E+00  0.00000000E+00
  0.00000000E+00  0.00000000E+00  0.00000000E+00
  0.00000000E+00  0.00000000E+00  0.00000000E+00
  0.00000000E+00  0.00000000E+00  0.00000000E+00
  0.00000000E+00  0.00000000E+00  0.00000000E+00
  0.00000000E+00  0.00000000E+00  0.00000000E+00
  0.00000000E+00  0.00000000E+00  0.00000000E+00
  0.00000000E+00  0.00000000E+00  0.00000000E+00
  0.00000000E+00  0.00000000E+00  0.00000000E+00
  0.00000000E+00  0.00000000E+00  0.00000000E+00
  0.00000000E+00  0.00000000E+00  0.00000000E+00
  0.00000000E+00  0.00000000E+00  0.00000000E+00
  0.00000000E+00  0.00000000E+00  0.00000000E+00
  0.00000000E+00  0.00000000E+00  0.00000000E+00
  0.00000000E+00  0.00000000E+00  0.00000000E+00
  0.00000000E+00  0.00000000E+00  0.00000000E+00
  0.00000000E+00  0.00000000E+00  0.00000000E+00
  0.00000000E+00  0.00000000E+00  0.00000000E+00
  0.00000000E+00  0.00000000E+00  0.00000000E+00
  0.00000000E+00  0.00000000E+00  0.00000000E+00
  0.00000000E+00  0.00000000E+00  0.00000000E+00
  0.00000000E+00  0.00000000E+00  0.00000000E+00
  0.00000000E+00  0.00000000E+00  0.00000000E+00
  0.00000000E+00  0.00000000E+00  0.00000000E+00
  0.00000000E+00  0.00000000E+00  0.00000000E+00
  0.00000000E+00  0.00000000E+00  0.00000000E+00
  0.00000000E+00  0.00000000E+00  0.00000000E+00
  0.00000000E+00  0.00000000E+00  0.00000000E+00
  0.00000000E+00  0.00000000E+00  0.00000000E+00
  0.00000000E+00  0.00000000E+00  0.00000000E+00
  0.00000000E+00  0.00000000E+00  0.00000000E+00
  0.00000000E+00  0.00000000E+00  0.00000000E+00
  0.00000000E+00  0.00000000E+00  0.00000000E+00
  0.00000000E+00  0.00000000E+00  0.00000000E+00
  0.00000000E+00  0.00000000E+00  0.00000000E+00
  0.00000000E+00  0.00000000E+00  0.00000000E+00
  0.00000000E+00  0.00000000E+00  0.00000000E+00
  0.00000000E+00  0.00000000E+00  0.00000000E+00
  0.00000000E+00  0.00000000E+00  0.00000000E+00
  0.00000000E+00  0.00000000E+00  0.00000000E+00
  0.00000000E+00  0.00000000E+00  0.00000000E+00
  0.00000000E+00  0.00000000E+00  0.00000000E+00
  0.00000000E+00  0.00000000E+00  0.00000000E+00
  0.00000000E+00  0.00000000E+00  0.00000000E+00
  0.00000000E+00  0.00000000E+00  0.00000000E+00
  0.00000000E+00  0.00000000E+00  0.00000000E+00
  0.00000000E+00  0.00000000E+00  0.00000000E+00
  0.00000000E+00  0.00000000E+00  0.00000000E+00
  0.00000000E+00  0.00000000E+00  0.00000000E+00
  0.00000000E+00  0.00000000E+00  0.00000000E+00
  0.00000000E+00  0.00000000E+00  0.00000000E+00
  0.00000000E+00  0.00000000E+00  0.00000000E+00
  0.00000000E+00  0.00000000E+00  0.00000000E+00
  0.00000000E+00  0.00000000E+00  0.00000000E+00
  0.00000000E+00  0.00000000E+00  0.00000000E+00
  0.00000000E+00  0.00000000E+00  0.00000000E+00
  0.00000000E+00  0.00000000E+00  0.00000000E+00
  0.00000000E+00  0.00000000E+00  0.00000000E+00
  0.00000000E+00  0.00000000E+00  0.00000000E+00
  0.00000000E+00  0.00000000E+00  0.00000000E+00
  0.00000000E+00  0.00000000E+00  0.00000000E+00
  0.00000000E+00  0.00000000E+00  0.00000000E+00
  0.00000000E+00  0.00000000E+00  0.00000000E+00
  0.00000000E+00  0.00000000E+00  0.00000000E+00
  0.00000000E+00  0.00000000E+00  0.00000000E+00
  0.00000000E+00  0.00000000E+00  0.00000000E+00
  0.00000000E+00  0.00000000E+00  0.00000000E+00
  0.00000000E+00  0.00000000E+00  0.00000000E+00
  0.00000000E+00  0.00000000E+00  0.00000000E+00
  0.00000000E+00  0.00000000E+00  0.00000000E+00
  0.00000000E+00  0.00000000E+00  0.00000000E+00
  0.00000000E+00  0.00000000E+00  0.00000000E+00
