Al                                      
   1.00000000000000     
    10.9063935956658007    0.0000000000000000    0.0000000000000000
    -0.0000000000000000   10.9063935956658007    0.0000000000000000
    -0.0000000000000000   -0.0000000000000000   10.9063935956658025
   Al   Mg
     1   107
Direct
  0.0000000000000000  0.0000000000000000  0.0000000000000000
  0.1675129390029943  0.0000000000000000  0.1675129390029943
 -0.0000000000000000 -0.0000000000000000  0.3339565056733609
  0.0000000000000000  0.0000000000000000  0.6660434943266392
 -0.0000000000000000  0.3339565056733609  0.0000000000000000
  0.0000000000000000  0.3337783344946664  0.3337783344946664
  0.0000000000000000  0.3337783344946664  0.6662216655053337
  0.0000000000000000  0.6660434943266392 -0.0000000000000000
 -0.0000000000000000  0.6662216655053337  0.3337783344946664
 -0.0000000000000000  0.6662216655053337  0.6662216655053337
  0.3339565056733609  0.0000000000000000  0.0000000000000000
  0.3337783344946664 -0.0000000000000000  0.3337783344946664
  0.3337783344946664 -0.0000000000000000  0.6662216655053337
  0.3337783344946664  0.3337783344946664 -0.0000000000000000
  0.3336095910832486  0.3336095910832486  0.3336095910832486
  0.3336095910832486  0.3336095910832486  0.6663904089167514
  0.3337783344946664  0.6662216655053337  0.0000000000000000
  0.3336095910832486  0.6663904089167514  0.3336095910832486
  0.3336095910832486  0.6663904089167514  0.6663904089167514
  0.6660434943266392 -0.0000000000000000 -0.0000000000000000
  0.6662216655053337  0.0000000000000000  0.3337783344946664
  0.6662216655053337  0.0000000000000000  0.6662216655053337
  0.6662216655053337  0.3337783344946664 -0.0000000000000000
  0.6663904089167514  0.3336095910832486  0.3336095910832486
  0.6663904089167514  0.3336095910832486  0.6663904089167514
  0.6662216655053337  0.6662216655053337  0.0000000000000000
  0.6663904089167514  0.6663904089167514  0.3336095910832486
  0.6663904089167514  0.6663904089167514  0.6663904089167514
 -0.0000000000000000  0.1675129390029943  0.1675129390029943
  0.0000000000000000  0.1669837065985791  0.5000000000000000
  0.0000000000000000  0.1675129390029943  0.8324870609970058
  0.0000000000000000  0.5000000000000000  0.1669837065985791
  0.0000000000000000  0.5000000000000000  0.5000000000000000
 -0.0000000000000000  0.5000000000000000  0.8330162934014209
 -0.0000000000000000  0.8324870609970058  0.1675129390029943
 -0.0000000000000000  0.8330162934014209  0.5000000000000000
  0.0000000000000000  0.8324870609970058  0.8324870609970058
  0.3337168844989570  0.1670446488556386  0.1670446488556386
  0.3335855506135916  0.1668677346926537  0.5000000000000000
  0.3337168844989570  0.1670446488556386  0.8329553511443614
  0.3335855506135916  0.5000000000000000  0.1668677346926537
  0.3335181099829626  0.5000000000000000  0.5000000000000000
  0.3335855506135916  0.5000000000000000  0.8331322653073463
  0.3337168844989570  0.8329553511443614  0.1670446488556386
  0.3335855506135916  0.8331322653073463  0.5000000000000000
  0.3337168844989570  0.8329553511443614  0.8329553511443614
  0.6662831155010429  0.1670446488556386  0.1670446488556386
  0.6664144493864084  0.1668677346926537  0.5000000000000000
  0.6662831155010429  0.1670446488556386  0.8329553511443614
  0.6664144493864084  0.5000000000000000  0.1668677346926537
  0.6664818900170374  0.5000000000000000  0.5000000000000000
  0.6664144493864084  0.5000000000000000  0.8331322653073463
  0.6662831155010429  0.8329553511443614  0.1670446488556386
  0.6664144493864084  0.8331322653073463  0.5000000000000000
  0.6662831155010429  0.8329553511443614  0.8329553511443614
  0.1669837065985791 -0.0000000000000000  0.5000000000000000
  0.1675129390029943  0.0000000000000000  0.8324870609970058
  0.1670446488556386  0.3337168844989570  0.1670446488556386
  0.1668677346926537  0.3335855506135916  0.5000000000000000
  0.1670446488556386  0.3337168844989570  0.8329553511443614
  0.1670446488556386  0.6662831155010429  0.1670446488556386
  0.1668677346926537  0.6664144493864084  0.5000000000000000
  0.1670446488556386  0.6662831155010429  0.8329553511443614
  0.5000000000000000  0.0000000000000000  0.1669837065985791
  0.5000000000000000  0.0000000000000000  0.5000000000000000
  0.5000000000000000 -0.0000000000000000  0.8330162934014209
  0.5000000000000000  0.3335855506135916  0.1668677346926537
  0.5000000000000000  0.3335181099829626  0.5000000000000000
  0.5000000000000000  0.3335855506135916  0.8331322653073463
  0.5000000000000000  0.6664144493864084  0.1668677346926537
  0.5000000000000000  0.6664818900170374  0.5000000000000000
  0.5000000000000000  0.6664144493864084  0.8331322653073463
  0.8324870609970058 -0.0000000000000000  0.1675129390029943
  0.8330162934014209  0.0000000000000000  0.5000000000000000
  0.8324870609970058 -0.0000000000000000  0.8324870609970058
  0.8329553511443614  0.3337168844989570  0.1670446488556386
  0.8331322653073463  0.3335855506135916  0.5000000000000000
  0.8329553511443614  0.3337168844989570  0.8329553511443614
  0.8329553511443614  0.6662831155010429  0.1670446488556386
  0.8331322653073463  0.6664144493864084  0.5000000000000000
  0.8329553511443614  0.6662831155010429  0.8329553511443614
  0.1675129390029943  0.1675129390029943  0.0000000000000000
  0.1670446488556386  0.1670446488556386  0.3337168844989570
  0.1670446488556386  0.1670446488556386  0.6662831155010429
  0.1669837065985791  0.5000000000000000 -0.0000000000000000
  0.1668677346926537  0.5000000000000000  0.3335855506135916
  0.1668677346926537  0.5000000000000000  0.6664144493864084
  0.1675129390029943  0.8324870609970058 -0.0000000000000000
  0.1670446488556386  0.8329553511443614  0.3337168844989570
  0.1670446488556386  0.8329553511443614  0.6662831155010429
  0.5000000000000000  0.1669837065985791 -0.0000000000000000
  0.5000000000000000  0.1668677346926537  0.3335855506135916
  0.5000000000000000  0.1668677346926537  0.6664144493864084
  0.5000000000000000  0.5000000000000000  0.0000000000000000
  0.5000000000000000  0.5000000000000000  0.3335181099829626
  0.5000000000000000  0.5000000000000000  0.6664818900170374
  0.5000000000000000  0.8330162934014209  0.0000000000000000
  0.5000000000000000  0.8331322653073463  0.3335855506135916
  0.5000000000000000  0.8331322653073463  0.6664144493864084
  0.8324870609970058  0.1675129390029943  0.0000000000000000
  0.8329553511443614  0.1670446488556386  0.3337168844989570
  0.8329553511443614  0.1670446488556386  0.6662831155010429
  0.8330162934014209  0.5000000000000000  0.0000000000000000
  0.8331322653073463  0.5000000000000000  0.3335855506135916
  0.8331322653073463  0.5000000000000000  0.6664144493864084
  0.8324870609970058  0.8324870609970058 -0.0000000000000000
  0.8329553511443614  0.8329553511443614  0.3337168844989570
  0.8329553511443614  0.8329553511443614  0.6662831155010429
 
  0.00000000E+00  0.00000000E+00  0.00000000E+00
  0.00000000E+00  0.00000000E+00  0.00000000E+00
  0.00000000E+00  0.00000000E+00  0.00000000E+00
  0.00000000E+00  0.00000000E+00  0.00000000E+00
  0.00000000E+00  0.00000000E+00  0.00000000E+00
  0.00000000E+00  0.00000000E+00  0.00000000E+00
  0.00000000E+00  0.00000000E+00  0.00000000E+00
  0.00000000E+00  0.00000000E+00  0.00000000E+00
  0.00000000E+00  0.00000000E+00  0.00000000E+00
  0.00000000E+00  0.00000000E+00  0.00000000E+00
  0.00000000E+00  0.00000000E+00  0.00000000E+00
  0.00000000E+00  0.00000000E+00  0.00000000E+00
  0.00000000E+00  0.00000000E+00  0.00000000E+00
  0.00000000E+00  0.00000000E+00  0.00000000E+00
  0.00000000E+00  0.00000000E+00  0.00000000E+00
  0.00000000E+00  0.00000000E+00  0.00000000E+00
  0.00000000E+00  0.00000000E+00  0.00000000E+00
  0.00000000E+00  0.00000000E+00  0.00000000E+00
  0.00000000E+00  0.00000000E+00  0.00000000E+00
  0.00000000E+00  0.00000000E+00  0.00000000E+00
  0.00000000E+00  0.00000000E+00  0.00000000E+00
  0.00000000E+00  0.00000000E+00  0.00000000E+00
  0.00000000E+00  0.00000000E+00  0.00000000E+00
  0.00000000E+00  0.00000000E+00  0.00000000E+00
  0.00000000E+00  0.00000000E+00  0.00000000E+00
  0.00000000E+00  0.00000000E+00  0.00000000E+00
  0.00000000E+00  0.00000000E+00  0.00000000E+00
  0.00000000E+00  0.00000000E+00  0.00000000E+00
  0.00000000E+00  0.00000000E+00  0.00000000E+00
  0.00000000E+00  0.00000000E+00  0.00000000E+00
  0.00000000E+00  0.00000000E+00  0.00000000E+00
  0.00000000E+00  0.00000000E+00  0.00000000E+00
  0.00000000E+00  0.00000000E+00  0.00000000E+00
  0.00000000E+00  0.00000000E+00  0.00000000E+00
  0.00000000E+00  0.00000000E+00  0.00000000E+00
  0.00000000E+00  0.00000000E+00  0.00000000E+00
  0.00000000E+00  0.00000000E+00  0.00000000E+00
  0.00000000E+00  0.00000000E+00  0.00000000E+00
  0.00000000E+00  0.00000000E+00  0.00000000E+00
  0.00000000E+00  0.00000000E+00  0.00000000E+00
  0.00000000E+00  0.00000000E+00  0.00000000E+00
  0.00000000E+00  0.00000000E+00  0.00000000E+00
  0.00000000E+00  0.00000000E+00  0.00000000E+00
  0.00000000E+00  0.00000000E+00  0.00000000E+00
  0.00000000E+00  0.00000000E+00  0.00000000E+00
  0.00000000E+00  0.00000000E+00  0.00000000E+00
  0.00000000E+00  0.00000000E+00  0.00000000E+00
  0.00000000E+00  0.00000000E+00  0.00000000E+00
  0.00000000E+00  0.00000000E+00  0.00000000E+00
  0.00000000E+00  0.00000000E+00  0.00000000E+00
  0.00000000E+00  0.00000000E+00  0.00000000E+00
  0.00000000E+00  0.00000000E+00  0.00000000E+00
  0.00000000E+00  0.00000000E+00  0.00000000E+00
  0.00000000E+00  0.00000000E+00  0.00000000E+00
  0.00000000E+00  0.00000000E+00  0.00000000E+00
  0.00000000E+00  0.00000000E+00  0.00000000E+00
  0.00000000E+00  0.00000000E+00  0.00000000E+00
  0.00000000E+00  0.00000000E+00  0.00000000E+00
  0.00000000E+00  0.00000000E+00  0.00000000E+00
  0.00000000E+00  0.00000000E+00  0.00000000E+00
  0.00000000E+00  0.00000000E+00  0.00000000E+00
  0.00000000E+00  0.00000000E+00  0.00000000E+00
  0.00000000E+00  0.00000000E+00  0.00000000E+00
  0.00000000E+00  0.00000000E+00  0.00000000E+00
  0.00000000E+00  0.00000000E+00  0.00000000E+00
  0.00000000E+00  0.00000000E+00  0.00000000E+00
  0.00000000E+00  0.00000000E+00  0.00000000E+00
  0.00000000E+00  0.00000000E+00  0.00000000E+00
  0.00000000E+00  0.00000000E+00  0.00000000E+00
  0.00000000E+00  0.00000000E+00  0.00000000E+00
  0.00000000E+00  0.00000000E+00  0.00000000E+00
  0.00000000E+00  0.00000000E+00  0.00000000E+00
  0.00000000E+00  0.00000000E+00  0.00000000E+00
  0.00000000E+00  0.00000000E+00  0.00000000E+00
  0.00000000E+00  0.00000000E+00  0.00000000E+00
  0.00000000E+00  0.00000000E+00  0.00000000E+00
  0.00000000E+00  0.00000000E+00  0.00000000E+00
  0.00000000E+00  0.00000000E+00  0.00000000E+00
  0.00000000E+00  0.00000000E+00  0.00000000E+00
  0.00000000E+00  0.00000000E+00  0.00000000E+00
  0.00000000E+00  0.00000000E+00  0.00000000E+00
  0.00000000E+00  0.00000000E+00  0.00000000E+00
  0.00000000E+00  0.00000000E+00  0.00000000E+00
  0.00000000E+00  0.00000000E+00  0.00000000E+00
  0.00000000E+00  0.00000000E+00  0.00000000E+00
  0.00000000E+00  0.00000000E+00  0.00000000E+00
  0.00000000E+00  0.00000000E+00  0.00000000E+00
  0.00000000E+00  0.00000000E+00  0.00000000E+00
  0.00000000E+00  0.00000000E+00  0.00000000E+00
  0.00000000E+00  0.00000000E+00  0.00000000E+00
  0.00000000E+00  0.00000000E+00  0.00000000E+00
  0.00000000E+00  0.00000000E+00  0.00000000E+00
  0.00000000E+00  0.00000000E+00  0.00000000E+00
  0.00000000E+00  0.00000000E+00  0.00000000E+00
  0.00000000E+00  0.00000000E+00  0.00000000E+00
  0.00000000E+00  0.00000000E+00  0.00000000E+00
  0.00000000E+00  0.00000000E+00  0.00000000E+00
  0.00000000E+00  0.00000000E+00  0.00000000E+00
  0.00000000E+00  0.00000000E+00  0.00000000E+00
  0.00000000E+00  0.00000000E+00  0.00000000E+00
  0.00000000E+00  0.00000000E+00  0.00000000E+00
  0.00000000E+00  0.00000000E+00  0.00000000E+00
  0.00000000E+00  0.00000000E+00  0.00000000E+00
  0.00000000E+00  0.00000000E+00  0.00000000E+00
  0.00000000E+00  0.00000000E+00  0.00000000E+00
  0.00000000E+00  0.00000000E+00  0.00000000E+00
  0.00000000E+00  0.00000000E+00  0.00000000E+00
  0.00000000E+00  0.00000000E+00  0.00000000E+00
