ENCUT = 360.6555
IBRION = 1
IMAGES = 1
ISIF = 2
ISMEAR = 1
LCHARG = False
LCLIMB = True
LWAVE = False
NSW = 191
POTIM = 0.5
PREC = Accurate
SIGMA = 0.2
SPRING = -5
