Ga3 Bi1 As3
1.0
5.626600 0.000000 0.000000
0.000000 5.626600 0.000000
0.000000 0.000000 5.626600
Ga Bi As
3 1 3
direct
0.520538 0.520538 -0.010714 Ga
-0.010714 0.520538 0.520538 Ga
0.520538 -0.010714 0.520538 Ga
0.167147 0.167147 0.167147 Bi
0.780685 0.780685 0.241122 As
0.241122 0.780685 0.780685 As
0.780685 0.241122 0.780685 As

0.000000 0.000000 0.000000
0.000000 0.000000 0.000000
0.000000 0.000000 0.000000
0.000000 0.000000 0.000000
0.000000 0.000000 0.000000
0.000000 0.000000 0.000000
0.000000 0.000000 0.000000
