# Test file


$MaSt
#rahaononadiouodnndlnnsd
program VASP
system_name GaAsBi
$end

$structure
coord_type fractional

begin coordinates
Ga 0.000000 0.000000 0.000000
Ga 0.500000 0.500000 0.000000
Ga 0.000000 0.500000 0.500000
Ga 0.500000 0.000000 0.500000
As 0.250000 0.250000 0.250000
As 0.750000 0.750000 0.250000
As 0.250000 0.750000 0.750000
As 0.750000 0.250000 0.750000
end

begin lattice
2.0 0.0 0.0
0.0 2.0 0.0
0.0 0.0 2.0
end
$end

$defects
coord_type fractional
vacancy 0.0 0.0 0.0 Ga
interstitial 0.35 0.45 0.25 As
$end

$ingredients
begin ingredients_global
kpoints 3x3x3
xc pbe
end

begin singlepoint
encut 400
xc pw91
end

begin optimize
encut 300
ibrion 2
end
$end

$recipe
recipe_file defect_test.txt
$end

$chemical_potentials
begin As rich
Ga 4.5
As 3.5
end

begin Ga rich
Ga 3.5
As 4.5
end
$end

