Sr1 Al30 Cr1
1.0
8.000000 0.000000 0.000000
0.000000 8.000000 0.000000
0.000000 0.000000 8.000000
Sr Al Cr
1 30 1
direct
0.250000 0.250000 0.000000 Sr
0.000000 0.000000 0.000000 Al
0.000000 0.000000 0.500000 Al
0.000000 0.500000 0.000000 Al
0.000000 0.500000 0.500000 Al
0.500000 0.000000 0.000000 Al
0.500000 0.000000 0.500000 Al
0.500000 0.500000 0.000000 Al
0.500000 0.500000 0.500000 Al
0.250000 0.250000 0.500000 Al
0.250000 0.750000 0.000000 Al
0.250000 0.750000 0.500000 Al
0.750000 0.250000 0.000000 Al
0.750000 0.250000 0.500000 Al
0.750000 0.750000 0.000000 Al
0.750000 0.750000 0.500000 Al
0.250000 0.000000 0.250000 Al
0.250000 0.000000 0.750000 Al
0.250000 0.500000 0.250000 Al
0.250000 0.500000 0.750000 Al
0.750000 0.000000 0.250000 Al
0.750000 0.000000 0.750000 Al
0.750000 0.500000 0.250000 Al
0.750000 0.500000 0.750000 Al
0.000000 0.250000 0.750000 Al
0.000000 0.750000 0.250000 Al
0.000000 0.750000 0.750000 Al
0.500000 0.250000 0.250000 Al
0.500000 0.250000 0.750000 Al
0.500000 0.750000 0.250000 Al
0.500000 0.750000 0.750000 Al
0.400000 0.350000 0.300000 Cr
