Mg1 Al32                                
   1.00000000000000     
     8.0870400000000000    0.0000000000000000    0.0000000000000000
     0.0000000000000000    8.0870400000000000    0.0000000000000000
     0.0000000000000000    0.0000000000000000    8.0870400000000000
   Al   Mg
  32   1
Direct
  0.0000000000000000  0.0000000000000000  0.0213872297158829
  0.2286127702841171  0.0000000000000000  0.2500000000000000
  0.2405506682545192  0.2405506682545192  0.0094493317454807
  0.0000000000000000  0.2286127702841171  0.2500000000000000
  0.5000000000000000  0.0000000000000000  0.0256451255127548
  0.7713872297158830  0.0000000000000000  0.2500000000000000
  0.7594493317454807  0.2405506682545192  0.0094493317454807
  0.5000000000000000  0.2243548744872452  0.2500000000000000
  0.0000000000000000  0.5000000000000000  0.0256451255127548
  0.2243548744872452  0.5000000000000000  0.2500000000000000
  0.2405506682545192  0.7594493317454807  0.0094493317454807
  0.0000000000000000  0.7713872297158830  0.2500000000000000
  0.5000000000000000  0.5000000000000000  0.0830163874639948
  0.7756451255127549  0.5000000000000000  0.2500000000000000
  0.7594493317454807  0.7594493317454807  0.0094493317454807
  0.5000000000000000  0.7756451255127549  0.2500000000000000
  0.0000000000000000  0.0000000000000000  0.4786127702841170
  0.2243548744872452  0.0000000000000000  0.7500000000000000
  0.2405506682545192  0.2405506682545192  0.4905506682545194
  0.0000000000000000  0.2243548744872452  0.7500000000000000
  0.5000000000000000  0.0000000000000000  0.4743548744872452
  0.7756451255127549  0.0000000000000000  0.7500000000000000
  0.7594493317454807  0.2405506682545192  0.4905506682545194
  0.5000000000000000  0.1669836125360053  0.7500000000000000
  0.0000000000000000  0.5000000000000000  0.4743548744872452
  0.1669836125360053  0.5000000000000000  0.7500000000000000
  0.2405506682545192  0.7594493317454807  0.4905506682545194
  0.0000000000000000  0.7756451255127549  0.7500000000000000
  0.5000000000000000  0.5000000000000000  0.4169836125360052
  0.8330163874639946  0.5000000000000000  0.7500000000000000
  0.7594493317454807  0.7594493317454807  0.4905506682545194
  0.5000000000000000  0.8330163874639946  0.7500000000000000
  0.5000000000000000  0.5000000000000000  0.7500000000000000
 
  0.00000000E+00  0.00000000E+00  0.00000000E+00
  0.00000000E+00  0.00000000E+00  0.00000000E+00
  0.00000000E+00  0.00000000E+00  0.00000000E+00
  0.00000000E+00  0.00000000E+00  0.00000000E+00
  0.00000000E+00  0.00000000E+00  0.00000000E+00
  0.00000000E+00  0.00000000E+00  0.00000000E+00
  0.00000000E+00  0.00000000E+00  0.00000000E+00
  0.00000000E+00  0.00000000E+00  0.00000000E+00
  0.00000000E+00  0.00000000E+00  0.00000000E+00
  0.00000000E+00  0.00000000E+00  0.00000000E+00
  0.00000000E+00  0.00000000E+00  0.00000000E+00
  0.00000000E+00  0.00000000E+00  0.00000000E+00
  0.00000000E+00  0.00000000E+00  0.00000000E+00
  0.00000000E+00  0.00000000E+00  0.00000000E+00
  0.00000000E+00  0.00000000E+00  0.00000000E+00
  0.00000000E+00  0.00000000E+00  0.00000000E+00
  0.00000000E+00  0.00000000E+00  0.00000000E+00
  0.00000000E+00  0.00000000E+00  0.00000000E+00
  0.00000000E+00  0.00000000E+00  0.00000000E+00
  0.00000000E+00  0.00000000E+00  0.00000000E+00
  0.00000000E+00  0.00000000E+00  0.00000000E+00
  0.00000000E+00  0.00000000E+00  0.00000000E+00
  0.00000000E+00  0.00000000E+00  0.00000000E+00
  0.00000000E+00  0.00000000E+00  0.00000000E+00
  0.00000000E+00  0.00000000E+00  0.00000000E+00
  0.00000000E+00  0.00000000E+00  0.00000000E+00
  0.00000000E+00  0.00000000E+00  0.00000000E+00
  0.00000000E+00  0.00000000E+00  0.00000000E+00
  0.00000000E+00  0.00000000E+00  0.00000000E+00
  0.00000000E+00  0.00000000E+00  0.00000000E+00
  0.00000000E+00  0.00000000E+00  0.00000000E+00
  0.00000000E+00  0.00000000E+00  0.00000000E+00
  0.00000000E+00  0.00000000E+00  0.00000000E+00
