Mg1 Al32
1.0
8.087040 0.000000 0.000000
0.000000 8.087040 0.000000
0.000000 0.000000 8.087040
Al Mg
32 1
direct
0.000000 0.000000 0.000000 Al
0.250000 0.000000 0.250000 Al
0.250000 0.250000 0.000000 Al
0.000000 0.250000 0.250000 Al
0.500000 0.000000 0.000000 Al
0.750000 0.000000 0.250000 Al
0.750000 0.250000 0.000000 Al
0.500000 0.250000 0.250000 Al
0.000000 0.500000 0.000000 Al
0.250000 0.500000 0.250000 Al
0.250000 0.750000 0.000000 Al
0.000000 0.750000 0.250000 Al
0.500000 0.500000 0.000000 Al
0.750000 0.500000 0.250000 Al
0.750000 0.750000 0.000000 Al
0.500000 0.750000 0.250000 Al
0.000000 0.000000 0.500000 Al
0.250000 0.000000 0.750000 Al
0.250000 0.250000 0.500000 Al
0.000000 0.250000 0.750000 Al
0.500000 0.000000 0.500000 Al
0.750000 0.000000 0.750000 Al
0.750000 0.250000 0.500000 Al
0.500000 0.250000 0.750000 Al
0.000000 0.500000 0.500000 Al
0.250000 0.500000 0.750000 Al
0.250000 0.750000 0.500000 Al
0.000000 0.750000 0.750000 Al
0.500000 0.500000 0.500000 Al
0.750000 0.500000 0.750000 Al
0.750000 0.750000 0.500000 Al
0.500000 0.750000 0.750000 Al
0.500000 0.500000 0.750000 Mg

0.000000 0.000000 0.000000
0.000000 0.000000 0.000000
0.000000 0.000000 0.000000
0.000000 0.000000 0.000000
0.000000 0.000000 0.000000
0.000000 0.000000 0.000000
0.000000 0.000000 0.000000
0.000000 0.000000 0.000000
0.000000 0.000000 0.000000
0.000000 0.000000 0.000000
0.000000 0.000000 0.000000
0.000000 0.000000 0.000000
0.000000 0.000000 0.000000
0.000000 0.000000 0.000000
0.000000 0.000000 0.000000
0.000000 0.000000 0.000000
0.000000 0.000000 0.000000
0.000000 0.000000 0.000000
0.000000 0.000000 0.000000
0.000000 0.000000 0.000000
0.000000 0.000000 0.000000
0.000000 0.000000 0.000000
0.000000 0.000000 0.000000
0.000000 0.000000 0.000000
0.000000 0.000000 0.000000
0.000000 0.000000 0.000000
0.000000 0.000000 0.000000
0.000000 0.000000 0.000000
0.000000 0.000000 0.000000
0.000000 0.000000 0.000000
0.000000 0.000000 0.000000
0.000000 0.000000 0.000000
0.000000 0.000000 0.000000
