Mg1 Al30                                
   1.00000000000000     
     8.0870540000000002    0.0000000000000000    0.0000000000000000
     0.0000000000000000    8.0870540000000002    0.0000000000000000
     0.0000000000000000    0.0000000000000000    8.0870540000000002
   Mg   Al
   1  30
Direct
  0.4941603673432062  0.5000000000000000  0.4941603673432062
 -0.0021574389474461  0.0000000000000000 -0.0021574389474461
  0.2481176337342308  0.0000000000000000  0.2481176337342308
  0.2447128492064311  0.2424174160719700 -0.0052467433610231
 -0.0052467433610231  0.2424174160719700  0.2447128492064311
  0.5032940423342093  0.0000000000000000 -0.0043620434423751
  0.7552252308454669  0.0000000000000000  0.2461347338274682
  0.7547016357162741  0.2434798625324628 -0.0026924403787339
  0.5081793722031073  0.2286202552708460  0.2387982551303145
 -0.0061722403570317  0.5000000000000000 -0.0061722403570317
  0.2447128492064311  0.7575825839280300 -0.0052467433610231
 -0.0052467433610231  0.7575825839280300  0.2447128492064311
  0.5107980235404527  0.5000000000000000 -0.0062578274161900
  0.7614342178759402  0.5000000000000000  0.2360248220432961
  0.7547016357162741  0.7565201374675373 -0.0026924403787339
  0.5081793722031073  0.7713797447291539  0.2387982551303145
 -0.0043620434423751  0.0000000000000000  0.5032940423342093
  0.2461347338274682  0.0000000000000000  0.7552252308454669
  0.2387982551303145  0.2286202552708460  0.5081793722031073
 -0.0026924403787339  0.2434798625324628  0.7547016357162741
  0.4996166010446122  0.0000000000000000  0.4996166010446122
  0.7555343630023400  0.0000000000000000  0.7555343630023400
  0.7590967817875856  0.2397857661055120  0.5017429934121674
  0.5017429934121674  0.2397857661055120  0.7590967817875856
 -0.0062578274161900  0.5000000000000000  0.5107980235404527
  0.2360248220432961  0.5000000000000000  0.7614342178759402
  0.2387982551303145  0.7713797447291539  0.5081793722031073
 -0.0026924403787339  0.7565201374675373  0.7547016357162741
  0.7600241071395742  0.5000000000000000  0.7600241071395742
  0.7590967817875856  0.7602142338944879  0.5017429934121674
  0.5017429934121674  0.7602142338944879  0.7590967817875856
 
  0.00000000E+00  0.00000000E+00  0.00000000E+00
  0.00000000E+00  0.00000000E+00  0.00000000E+00
  0.00000000E+00  0.00000000E+00  0.00000000E+00
  0.00000000E+00  0.00000000E+00  0.00000000E+00
  0.00000000E+00  0.00000000E+00  0.00000000E+00
  0.00000000E+00  0.00000000E+00  0.00000000E+00
  0.00000000E+00  0.00000000E+00  0.00000000E+00
  0.00000000E+00  0.00000000E+00  0.00000000E+00
  0.00000000E+00  0.00000000E+00  0.00000000E+00
  0.00000000E+00  0.00000000E+00  0.00000000E+00
  0.00000000E+00  0.00000000E+00  0.00000000E+00
  0.00000000E+00  0.00000000E+00  0.00000000E+00
  0.00000000E+00  0.00000000E+00  0.00000000E+00
  0.00000000E+00  0.00000000E+00  0.00000000E+00
  0.00000000E+00  0.00000000E+00  0.00000000E+00
  0.00000000E+00  0.00000000E+00  0.00000000E+00
  0.00000000E+00  0.00000000E+00  0.00000000E+00
  0.00000000E+00  0.00000000E+00  0.00000000E+00
  0.00000000E+00  0.00000000E+00  0.00000000E+00
  0.00000000E+00  0.00000000E+00  0.00000000E+00
  0.00000000E+00  0.00000000E+00  0.00000000E+00
  0.00000000E+00  0.00000000E+00  0.00000000E+00
  0.00000000E+00  0.00000000E+00  0.00000000E+00
  0.00000000E+00  0.00000000E+00  0.00000000E+00
  0.00000000E+00  0.00000000E+00  0.00000000E+00
  0.00000000E+00  0.00000000E+00  0.00000000E+00
  0.00000000E+00  0.00000000E+00  0.00000000E+00
  0.00000000E+00  0.00000000E+00  0.00000000E+00
  0.00000000E+00  0.00000000E+00  0.00000000E+00
  0.00000000E+00  0.00000000E+00  0.00000000E+00
  0.00000000E+00  0.00000000E+00  0.00000000E+00
