Mg1 Al30
1.0
8.087054 0.000000 0.000000
0.000000 8.087054 0.000000
0.000000 0.000000 8.087054
Mg Al
1 30
direct
0.500000 0.500000 0.500000 Mg
0.000000 0.000000 0.000000 Al
0.250000 0.000000 0.250000 Al
0.250000 0.250000 0.000000 Al
0.000000 0.250000 0.250000 Al
0.500000 0.000000 0.000000 Al
0.750000 0.000000 0.250000 Al
0.750000 0.250000 0.000000 Al
0.500000 0.250000 0.250000 Al
0.000000 0.500000 0.000000 Al
0.250000 0.750000 0.000000 Al
0.000000 0.750000 0.250000 Al
0.500000 0.500000 0.000000 Al
0.750000 0.500000 0.250000 Al
0.750000 0.750000 0.000000 Al
0.500000 0.750000 0.250000 Al
0.000000 0.000000 0.500000 Al
0.250000 0.000000 0.750000 Al
0.250000 0.250000 0.500000 Al
0.000000 0.250000 0.750000 Al
0.500000 0.000000 0.500000 Al
0.750000 0.000000 0.750000 Al
0.750000 0.250000 0.500000 Al
0.500000 0.250000 0.750000 Al
0.000000 0.500000 0.500000 Al
0.250000 0.500000 0.750000 Al
0.250000 0.750000 0.500000 Al
0.000000 0.750000 0.750000 Al
0.750000 0.500000 0.750000 Al
0.750000 0.750000 0.500000 Al
0.500000 0.750000 0.750000 Al
