Mg1 Al30                                
   1.00000000000000     
     8.0870519999999999    0.0000000000000000    0.0000000000000000
     0.0000000000000000    8.0870519999999999    0.0000000000000000
     0.0000000000000000    0.0000000000000000    8.0870519999999999
   Al   Mg
  30   1
Direct
 -0.0055051689045835  0.0000000000000000 -0.0055051689045835
  0.2503669095828470  0.0000000000000000  0.2503669095828470
  0.2482263654648508  0.2398092209583171 -0.0090672568927712
 -0.0090672568927712  0.2398092209583171  0.2482263654648508
  0.5038456651137277  0.0000000000000000 -0.0051978012443605
  0.7543648383413214  0.0000000000000000  0.2467020580155530
  0.7527218560338003  0.2435069415174607 -0.0046652270456899
  0.5111662238654865  0.2286750435942505  0.2418207300128115
 -0.0100032839423350  0.5000000000000000 -0.0100032839423350
  0.2482263654648508  0.7601907790416830 -0.0090672568927712
 -0.0090672568927712  0.7601907790416830  0.2482263654648508
  0.5139432601788056  0.5000000000000000 -0.0114045695639692
  0.7562469816897267  0.5000000000000000  0.2392109542089587
  0.7527218560338003  0.7564930584825392 -0.0046652270456899
  0.5111662238654865  0.7713249564057495  0.2418207300128115
 -0.0051978012443605  0.0000000000000000  0.5038456651137277
  0.2467020580155530  0.0000000000000000  0.7543648383413214
  0.2418207300128115  0.2286750435942505  0.5111662238654865
 -0.0046652270456899  0.2435069415174607  0.7527218560338003
  0.5018336725068698  0.0000000000000000  0.5018336725068698
  0.7521635582860872  0.0000000000000000  0.7521635582860872
  0.7552502923117272  0.2424633185837293  0.5052452486863878
  0.5052452486863878  0.2424633185837293  0.7552502923117272
 -0.0114045695639692  0.5000000000000000  0.5139432601788056
  0.2392109542089587  0.5000000000000000  0.7562469816897267
  0.2418207300128115  0.7713249564057495  0.5111662238654865
 -0.0046652270456899  0.7564930584825392  0.7527218560338003
  0.7561859453257476  0.5000000000000000  0.7561859453257476
  0.7552502923117272  0.7575366814162706  0.5052452486863878
  0.5052452486863878  0.7575366814162706  0.7552502923117272
  0.2558505155323973  0.5000000000000000  0.2558505155323973
 
  0.00000000E+00  0.00000000E+00  0.00000000E+00
  0.00000000E+00  0.00000000E+00  0.00000000E+00
  0.00000000E+00  0.00000000E+00  0.00000000E+00
  0.00000000E+00  0.00000000E+00  0.00000000E+00
  0.00000000E+00  0.00000000E+00  0.00000000E+00
  0.00000000E+00  0.00000000E+00  0.00000000E+00
  0.00000000E+00  0.00000000E+00  0.00000000E+00
  0.00000000E+00  0.00000000E+00  0.00000000E+00
  0.00000000E+00  0.00000000E+00  0.00000000E+00
  0.00000000E+00  0.00000000E+00  0.00000000E+00
  0.00000000E+00  0.00000000E+00  0.00000000E+00
  0.00000000E+00  0.00000000E+00  0.00000000E+00
  0.00000000E+00  0.00000000E+00  0.00000000E+00
  0.00000000E+00  0.00000000E+00  0.00000000E+00
  0.00000000E+00  0.00000000E+00  0.00000000E+00
  0.00000000E+00  0.00000000E+00  0.00000000E+00
  0.00000000E+00  0.00000000E+00  0.00000000E+00
  0.00000000E+00  0.00000000E+00  0.00000000E+00
  0.00000000E+00  0.00000000E+00  0.00000000E+00
  0.00000000E+00  0.00000000E+00  0.00000000E+00
  0.00000000E+00  0.00000000E+00  0.00000000E+00
  0.00000000E+00  0.00000000E+00  0.00000000E+00
  0.00000000E+00  0.00000000E+00  0.00000000E+00
  0.00000000E+00  0.00000000E+00  0.00000000E+00
  0.00000000E+00  0.00000000E+00  0.00000000E+00
  0.00000000E+00  0.00000000E+00  0.00000000E+00
  0.00000000E+00  0.00000000E+00  0.00000000E+00
  0.00000000E+00  0.00000000E+00  0.00000000E+00
  0.00000000E+00  0.00000000E+00  0.00000000E+00
  0.00000000E+00  0.00000000E+00  0.00000000E+00
  0.00000000E+00  0.00000000E+00  0.00000000E+00
