Al29 Ag1 Pt1 Au1                        
   1.00000000000000     
     8.0870400000000000    0.0000000000000000    0.0000000000000000
     0.0000000000000000    8.0870400000000000    0.0000000000000000
     0.0000000000000000    0.0000000000000000    8.0870400000000000
   Al   Pt   Au   Ag
  29   1   1   1
Direct
  0.0059407303516530  0.9916255821127382  0.9993685702107894
  0.2528190791399033  0.9907027410997353  0.2420126420858563
  0.2502356106940746  0.2454823333010589  0.0002969521711638
  0.0006740015797334  0.2509694078753286  0.2486386590572687
  0.7537078516052981  0.0005455683934683  0.2507586442219338
  0.7516382961788863  0.2533835732121348 -0.0010536415924469
  0.5025176954204894  0.2536920971836983  0.2499309201917929
  0.9961776744660544  0.4988352863033071  0.0009335928681519
  0.2496929417870209  0.4986215378994400  0.2515768450285605
  0.9983821359750192  0.7470695766251033  0.2503644602194273
  0.4946578092911611  0.5037732975106136  0.0006065779699308
  0.7506390103467560  0.5005315864650591  0.2463392081600604
  0.7463288069093046  0.7488979722575800  0.0014514553826468
  0.4940022900291489  0.7513763213383501  0.2436392338065994
  0.0008848350275947  0.0008460602873032  0.4975544558334529
  0.2517475159047631  0.2515743885149898  0.4982117685519026
  0.0007382255208405  0.2522900087266517  0.7478866315444671
  0.5025657004475671  0.0018019113193122  0.4980332127540382
  0.7525367028139192  0.0015614402082479  0.7478883927815257
  0.7524587520641004  0.2507814854081712  0.4983392443854807
  0.5015105095324420  0.2549743272609273  0.7479009861446730
  0.0027927205743173  0.5000666863681393  0.4995692780317409
  0.2498910477162076  0.5026136138098500  0.7543337371202888
  0.2490720943627435  0.7480565329447583  0.5017693274409076
  0.0028711766369138  0.7500896498069144  0.7546029744691350
  0.5018315698683820  0.5020893738143601  0.4962947803036384
  0.7533572160334719  0.5012597005105585  0.7489532066370771
  0.7514603854643052  0.7500148015234370  0.4976700481324197
  0.4908068227620616  0.7572168413560535  0.7600686420749224
  0.2304880416472930  0.7292516152870141  0.0145239046844261
  0.5097336845536727  0.0092146775783302  0.0056585967027546
  0.2478390652949010  0.0007920036973532  0.7458766926254345
 
  0.00000000E+00  0.00000000E+00  0.00000000E+00
  0.00000000E+00  0.00000000E+00  0.00000000E+00
  0.00000000E+00  0.00000000E+00  0.00000000E+00
  0.00000000E+00  0.00000000E+00  0.00000000E+00
  0.00000000E+00  0.00000000E+00  0.00000000E+00
  0.00000000E+00  0.00000000E+00  0.00000000E+00
  0.00000000E+00  0.00000000E+00  0.00000000E+00
  0.00000000E+00  0.00000000E+00  0.00000000E+00
  0.00000000E+00  0.00000000E+00  0.00000000E+00
  0.00000000E+00  0.00000000E+00  0.00000000E+00
  0.00000000E+00  0.00000000E+00  0.00000000E+00
  0.00000000E+00  0.00000000E+00  0.00000000E+00
  0.00000000E+00  0.00000000E+00  0.00000000E+00
  0.00000000E+00  0.00000000E+00  0.00000000E+00
  0.00000000E+00  0.00000000E+00  0.00000000E+00
  0.00000000E+00  0.00000000E+00  0.00000000E+00
  0.00000000E+00  0.00000000E+00  0.00000000E+00
  0.00000000E+00  0.00000000E+00  0.00000000E+00
  0.00000000E+00  0.00000000E+00  0.00000000E+00
  0.00000000E+00  0.00000000E+00  0.00000000E+00
  0.00000000E+00  0.00000000E+00  0.00000000E+00
  0.00000000E+00  0.00000000E+00  0.00000000E+00
  0.00000000E+00  0.00000000E+00  0.00000000E+00
  0.00000000E+00  0.00000000E+00  0.00000000E+00
  0.00000000E+00  0.00000000E+00  0.00000000E+00
  0.00000000E+00  0.00000000E+00  0.00000000E+00
  0.00000000E+00  0.00000000E+00  0.00000000E+00
  0.00000000E+00  0.00000000E+00  0.00000000E+00
  0.00000000E+00  0.00000000E+00  0.00000000E+00
  0.00000000E+00  0.00000000E+00  0.00000000E+00
  0.00000000E+00  0.00000000E+00  0.00000000E+00
  0.00000000E+00  0.00000000E+00  0.00000000E+00
