Al29 Ag1 Pt1 Au1
1.0
8.087040 0.000000 0.000000
0.000000 8.087040 0.000000
0.000000 0.000000 8.087040
Al Pt Au Ag
29 1 1 1
direct
-0.002649 -0.005621 -0.000237 Al
0.255292 -0.009579 0.250467 Al
0.240718 0.253251 0.007804 Al
-0.007242 0.257387 0.257067 Al
0.759561 0.006381 0.254506 Al
0.756166 0.258375 0.007358 Al
0.509640 0.256501 0.255790 Al
-0.008709 0.497244 0.005256 Al
0.245728 0.495704 0.257057 Al
-0.004017 0.744895 0.253545 Al
0.500429 0.501152 0.001456 Al
0.754111 0.495348 0.243630 Al
0.751378 0.742523 0.005043 Al
0.496927 0.749243 0.254471 Al
-0.003415 0.009054 0.491477 Al
0.241345 0.256640 0.492522 Al
-0.006529 0.258563 0.738874 Al
0.504102 0.004029 0.488433 Al
0.760870 0.001294 0.748671 Al
0.757508 0.255352 0.496359 Al
0.509778 0.270289 0.740502 Al
0.002081 0.494511 0.499076 Al
0.250025 0.499722 0.750339 Al
0.243224 0.741215 0.496012 Al
-0.009679 0.745397 0.750452 Al
0.512105 0.501310 0.492833 Al
0.759335 0.498807 0.739857 Al
0.752159 0.736993 0.496487 Al
0.498761 0.748522 0.752024 Al
0.223187 0.722576 0.020281 Pt
0.510480 0.011288 0.007455 Au
0.247330 0.001636 0.745133 Ag

0.000000 0.000000 0.000000
0.000000 0.000000 0.000000
0.000000 0.000000 0.000000
0.000000 0.000000 0.000000
0.000000 0.000000 0.000000
0.000000 0.000000 0.000000
0.000000 0.000000 0.000000
0.000000 0.000000 0.000000
0.000000 0.000000 0.000000
0.000000 0.000000 0.000000
0.000000 0.000000 0.000000
0.000000 0.000000 0.000000
0.000000 0.000000 0.000000
0.000000 0.000000 0.000000
0.000000 0.000000 0.000000
0.000000 0.000000 0.000000
0.000000 0.000000 0.000000
0.000000 0.000000 0.000000
0.000000 0.000000 0.000000
0.000000 0.000000 0.000000
0.000000 0.000000 0.000000
0.000000 0.000000 0.000000
0.000000 0.000000 0.000000
0.000000 0.000000 0.000000
0.000000 0.000000 0.000000
0.000000 0.000000 0.000000
0.000000 0.000000 0.000000
0.000000 0.000000 0.000000
0.000000 0.000000 0.000000
0.000000 0.000000 0.000000
0.000000 0.000000 0.000000
0.000000 0.000000 0.000000
