IBRION=1
ENCUT=585.8415
POTIM=0.5
IMAGES=3
SPRING=-5
LCLIMB=True
