Al72
1.0
12.000000 0.000000 0.000000
0.000000 12.000000 0.000000
0.000000 0.000000 8.000000
Al
72
direct
0.000000 0.000000 0.000000 Al
0.000000 0.000000 0.500000 Al
0.000000 0.333333 0.000000 Al
0.000000 0.333333 0.500000 Al
0.000000 0.666667 0.000000 Al
0.000000 0.666667 0.500000 Al
0.333333 0.000000 0.000000 Al
0.333333 0.000000 0.500000 Al
0.333333 0.333333 0.000000 Al
0.333333 0.333333 0.500000 Al
0.333333 0.666667 0.000000 Al
0.333333 0.666667 0.500000 Al
0.666667 0.000000 0.000000 Al
0.666667 0.000000 0.500000 Al
0.666667 0.333333 0.000000 Al
0.666667 0.333333 0.500000 Al
0.666667 0.666667 0.000000 Al
0.666667 0.666667 0.500000 Al
0.166667 0.166667 0.000000 Al
0.166667 0.166667 0.500000 Al
0.166667 0.500000 0.000000 Al
0.166667 0.500000 0.500000 Al
0.166667 0.833333 0.000000 Al
0.166667 0.833333 0.500000 Al
0.500000 0.166667 0.000000 Al
0.500000 0.166667 0.500000 Al
0.500000 0.500000 0.000000 Al
0.500000 0.500000 0.500000 Al
0.500000 0.833333 0.000000 Al
0.500000 0.833333 0.500000 Al
0.833333 0.166667 0.000000 Al
0.833333 0.166667 0.500000 Al
0.833333 0.500000 0.000000 Al
0.833333 0.500000 0.500000 Al
0.833333 0.833333 0.000000 Al
0.833333 0.833333 0.500000 Al
0.166667 0.000000 0.250000 Al
0.166667 0.000000 0.750000 Al
0.166667 0.333333 0.250000 Al
0.166667 0.333333 0.750000 Al
0.166667 0.666667 0.250000 Al
0.166667 0.666667 0.750000 Al
0.500000 0.000000 0.250000 Al
0.500000 0.000000 0.750000 Al
0.500000 0.333333 0.250000 Al
0.500000 0.333333 0.750000 Al
0.500000 0.666667 0.250000 Al
0.500000 0.666667 0.750000 Al
0.833333 0.000000 0.250000 Al
0.833333 0.000000 0.750000 Al
0.833333 0.333333 0.250000 Al
0.833333 0.333333 0.750000 Al
0.833333 0.666667 0.250000 Al
0.833333 0.666667 0.750000 Al
0.000000 0.166667 0.250000 Al
0.000000 0.166667 0.750000 Al
0.000000 0.500000 0.250000 Al
0.000000 0.500000 0.750000 Al
0.000000 0.833333 0.250000 Al
0.000000 0.833333 0.750000 Al
0.333333 0.166667 0.250000 Al
0.333333 0.166667 0.750000 Al
0.333333 0.500000 0.250000 Al
0.333333 0.500000 0.750000 Al
0.333333 0.833333 0.250000 Al
0.333333 0.833333 0.750000 Al
0.666667 0.166667 0.250000 Al
0.666667 0.166667 0.750000 Al
0.666667 0.500000 0.250000 Al
0.666667 0.500000 0.750000 Al
0.666667 0.833333 0.250000 Al
0.666667 0.833333 0.750000 Al
