Al                                      
   1.00000000000000     
    10.9063935956658007    0.0000000000000000    0.0000000000000000
     0.0000000000000000   10.9063935956658007    0.0000000000000000
     0.0000000000000000    0.0000000000000000   10.9063935956658025
   Al   Mg
     1   106
Direct
  0.0039959425940310  0.0000000000000000  0.0039959425940310
  0.0021688967654541  0.0000000000000000  0.3313745088024405
  0.0005249794891071  0.0000000000000000  0.6662917492898615
  0.0004825381805205  0.3334392276613514  0.0004825381805205
  0.0005434782458664  0.3330680363339482  0.3333111629743044
  0.0003035026005236  0.3333902023650310  0.6661275036040237
  0.0004825381805205  0.6665607723386486  0.0004825381805205
  0.0005434782458664  0.6669319636660518  0.3333111629743044
  0.0003035026005236  0.6666097976349690  0.6661275036040237
  0.3313745088024405  0.0000000000000000  0.0021688967654541
  0.3313083436017550  0.0000000000000000  0.3313083436017550
  0.3332152533870882  0.0000000000000000  0.6663660136179956
  0.3333111629743044  0.3330680363339482  0.0005434782458664
  0.3329986254468551  0.3326590949840593  0.3329986254468551
  0.3334387795071194  0.3331885329546367  0.6662946987214227
  0.3333111629743044  0.6669319636660518  0.0005434782458664
  0.3329986254468551  0.6673409050159407  0.3329986254468551
  0.3334387795071194  0.6668114670453633  0.6662946987214227
  0.6662917492898615  0.0000000000000000  0.0005249794891071
  0.6663660136179956  0.0000000000000000  0.3332152533870882
  0.6662390922912280  0.0000000000000000  0.6662390922912280
  0.6661275036040237  0.3333902023650310  0.0003035026005236
  0.6662946987214227  0.3331885329546367  0.3334387795071194
  0.6663518846290870  0.3333046074293051  0.6663518846290870
  0.6661275036040237  0.6666097976349690  0.0003035026005236
  0.6662946987214227  0.6668114670453633  0.3334387795071194
  0.6663518846290870  0.6666953925706949  0.6663518846290870
  0.0016728235450572  0.1664843105029874  0.1675598129682285
  0.0005706605978872  0.1662626226252968  0.4991101490323047
  0.0004627157149173  0.1671163583140114  0.8331870950917803
  0.0004563778977982  0.5000000000000000  0.1670559477531128
  0.0003574843178455  0.5000000000000000  0.4996243078742850
  0.0002801496604263  0.5000000000000000  0.8333184331707173
  0.0016728235450572  0.8335156894970126  0.1675598129682285
  0.0005706605978872  0.8337373773747032  0.4991101490323047
  0.0004627157149173  0.8328836416859886  0.8331870950917803
  0.3315754732356169  0.1650478754459641  0.1668904033981349
  0.3329287460755026  0.1661998744860398  0.4990949538890348
  0.3331979429478196  0.1665486453801606  0.8337317455959763
  0.3332308925635488  0.5000000000000000  0.1669640041811391
  0.3332744920804629  0.5000000000000000  0.4994975824313741
  0.3334907847716551  0.5000000000000000  0.8335037999054009
  0.3315754732356169  0.8349521245540359  0.1668904033981349
  0.3329287460755026  0.8338001255139602  0.4990949538890348
  0.3331979429478196  0.8334513546198394  0.8337317455959763
  0.6664322562349483  0.1664476488948452  0.1670537078256658
  0.6663597151351155  0.1665199370368740  0.4995856306752913
  0.6663022775763920  0.1667239327119958  0.8333426316956931
  0.6661467653407414  0.5000000000000000  0.1669760003306706
  0.6664362704874947  0.5000000000000000  0.4997629563231598
  0.6663498146557032  0.5000000000000000  0.8333584682616717
  0.6664322562349483  0.8335523511051548  0.1670537078256658
  0.6663597151351155  0.8334800629631260  0.4995856306752913
  0.6663022775763920  0.8332760672880042  0.8333426316956931
  0.1668703927126671  0.0000000000000000  0.4988040933574425
  0.1674031477632880  0.0000000000000000  0.8342680507472906
  0.1670890905542564  0.3327237413557000  0.1670890905542564
  0.1669362707173860  0.3331472854030011  0.4996998652328557
  0.1671255000799690  0.3336704830325914  0.8329639937495514
  0.1670890905542564  0.6672762586443000  0.1670890905542564
  0.1669362707173860  0.6668527145969989  0.4996998652328557
  0.1671255000799690  0.6663295169674086  0.8329639937495514
  0.4988040933574425  0.0000000000000000  0.1668703927126671
  0.4994880605892860  0.0000000000000000  0.4994880605892860
  0.4996770187162483  0.0000000000000000  0.8334778830353144
  0.4996998652328557  0.3331472854030011  0.1669362707173860
  0.4996140199113270  0.3331071904580938  0.4996140199113270
  0.4997139785654809  0.3332489203939701  0.8334549575083727
  0.4996998652328557  0.6668527145969989  0.1669362707173860
  0.4996140199113270  0.6668928095419062  0.4996140199113270
  0.4997139785654809  0.6667510796060299  0.8334549575083727
  0.8342680507472906  0.0000000000000000  0.1674031477632880
  0.8334778830353144  0.0000000000000000  0.4996770187162483
  0.8334105104965630  0.0000000000000000  0.8334105104965630
  0.8329639937495514  0.3336704830325914  0.1671255000799690
  0.8334549575083727  0.3332489203939701  0.4997139785654809
  0.8332507044020758  0.3334368034120132  0.8332507044020758
  0.8329639937495514  0.6663295169674086  0.1671255000799690
  0.8334549575083727  0.6667510796060299  0.4997139785654809
  0.8332507044020758  0.6665631965879868  0.8332507044020758
  0.1675598129682285  0.1664843105029874  0.0016728235450572
  0.1668904033981349  0.1650478754459641  0.3315754732356169
  0.1670537078256658  0.1664476488948452  0.6664322562349483
  0.1670559477531128  0.5000000000000000  0.0004563778977982
  0.1669640041811391  0.5000000000000000  0.3332308925635488
  0.1669760003306706  0.5000000000000000  0.6661467653407414
  0.1675598129682285  0.8335156894970126  0.0016728235450572
  0.1668904033981349  0.8349521245540359  0.3315754732356169
  0.1670537078256658  0.8335523511051548  0.6664322562349483
  0.4991101490323047  0.1662626226252968  0.0005706605978872
  0.4990949538890348  0.1661998744860398  0.3329287460755026
  0.4995856306752913  0.1665199370368740  0.6663597151351155
  0.4996243078742850  0.5000000000000000  0.0003574843178455
  0.4994975824313741  0.5000000000000000  0.3332744920804629
  0.4997629563231598  0.5000000000000000  0.6664362704874947
  0.4991101490323047  0.8337373773747032  0.0005706605978872
  0.4990949538890348  0.8338001255139602  0.3329287460755026
  0.4995856306752913  0.8334800629631260  0.6663597151351155
  0.8331870950917803  0.1671163583140114  0.0004627157149173
  0.8337317455959763  0.1665486453801606  0.3331979429478196
  0.8333426316956931  0.1667239327119958  0.6663022775763920
  0.8333184331707173  0.5000000000000000  0.0002801496604263
  0.8335037999054009  0.5000000000000000  0.3334907847716551
  0.8333584682616717  0.5000000000000000  0.6663498146557032
  0.8331870950917803  0.8328836416859886  0.0004627157149173
  0.8337317455959763  0.8334513546198394  0.3331979429478196
  0.8333426316956931  0.8332760672880042  0.6663022775763920
 
  0.00000000E+00  0.00000000E+00  0.00000000E+00
  0.00000000E+00  0.00000000E+00  0.00000000E+00
  0.00000000E+00  0.00000000E+00  0.00000000E+00
  0.00000000E+00  0.00000000E+00  0.00000000E+00
  0.00000000E+00  0.00000000E+00  0.00000000E+00
  0.00000000E+00  0.00000000E+00  0.00000000E+00
  0.00000000E+00  0.00000000E+00  0.00000000E+00
  0.00000000E+00  0.00000000E+00  0.00000000E+00
  0.00000000E+00  0.00000000E+00  0.00000000E+00
  0.00000000E+00  0.00000000E+00  0.00000000E+00
  0.00000000E+00  0.00000000E+00  0.00000000E+00
  0.00000000E+00  0.00000000E+00  0.00000000E+00
  0.00000000E+00  0.00000000E+00  0.00000000E+00
  0.00000000E+00  0.00000000E+00  0.00000000E+00
  0.00000000E+00  0.00000000E+00  0.00000000E+00
  0.00000000E+00  0.00000000E+00  0.00000000E+00
  0.00000000E+00  0.00000000E+00  0.00000000E+00
  0.00000000E+00  0.00000000E+00  0.00000000E+00
  0.00000000E+00  0.00000000E+00  0.00000000E+00
  0.00000000E+00  0.00000000E+00  0.00000000E+00
  0.00000000E+00  0.00000000E+00  0.00000000E+00
  0.00000000E+00  0.00000000E+00  0.00000000E+00
  0.00000000E+00  0.00000000E+00  0.00000000E+00
  0.00000000E+00  0.00000000E+00  0.00000000E+00
  0.00000000E+00  0.00000000E+00  0.00000000E+00
  0.00000000E+00  0.00000000E+00  0.00000000E+00
  0.00000000E+00  0.00000000E+00  0.00000000E+00
  0.00000000E+00  0.00000000E+00  0.00000000E+00
  0.00000000E+00  0.00000000E+00  0.00000000E+00
  0.00000000E+00  0.00000000E+00  0.00000000E+00
  0.00000000E+00  0.00000000E+00  0.00000000E+00
  0.00000000E+00  0.00000000E+00  0.00000000E+00
  0.00000000E+00  0.00000000E+00  0.00000000E+00
  0.00000000E+00  0.00000000E+00  0.00000000E+00
  0.00000000E+00  0.00000000E+00  0.00000000E+00
  0.00000000E+00  0.00000000E+00  0.00000000E+00
  0.00000000E+00  0.00000000E+00  0.00000000E+00
  0.00000000E+00  0.00000000E+00  0.00000000E+00
  0.00000000E+00  0.00000000E+00  0.00000000E+00
  0.00000000E+00  0.00000000E+00  0.00000000E+00
  0.00000000E+00  0.00000000E+00  0.00000000E+00
  0.00000000E+00  0.00000000E+00  0.00000000E+00
  0.00000000E+00  0.00000000E+00  0.00000000E+00
  0.00000000E+00  0.00000000E+00  0.00000000E+00
  0.00000000E+00  0.00000000E+00  0.00000000E+00
  0.00000000E+00  0.00000000E+00  0.00000000E+00
  0.00000000E+00  0.00000000E+00  0.00000000E+00
  0.00000000E+00  0.00000000E+00  0.00000000E+00
  0.00000000E+00  0.00000000E+00  0.00000000E+00
  0.00000000E+00  0.00000000E+00  0.00000000E+00
  0.00000000E+00  0.00000000E+00  0.00000000E+00
  0.00000000E+00  0.00000000E+00  0.00000000E+00
  0.00000000E+00  0.00000000E+00  0.00000000E+00
  0.00000000E+00  0.00000000E+00  0.00000000E+00
  0.00000000E+00  0.00000000E+00  0.00000000E+00
  0.00000000E+00  0.00000000E+00  0.00000000E+00
  0.00000000E+00  0.00000000E+00  0.00000000E+00
  0.00000000E+00  0.00000000E+00  0.00000000E+00
  0.00000000E+00  0.00000000E+00  0.00000000E+00
  0.00000000E+00  0.00000000E+00  0.00000000E+00
  0.00000000E+00  0.00000000E+00  0.00000000E+00
  0.00000000E+00  0.00000000E+00  0.00000000E+00
  0.00000000E+00  0.00000000E+00  0.00000000E+00
  0.00000000E+00  0.00000000E+00  0.00000000E+00
  0.00000000E+00  0.00000000E+00  0.00000000E+00
  0.00000000E+00  0.00000000E+00  0.00000000E+00
  0.00000000E+00  0.00000000E+00  0.00000000E+00
  0.00000000E+00  0.00000000E+00  0.00000000E+00
  0.00000000E+00  0.00000000E+00  0.00000000E+00
  0.00000000E+00  0.00000000E+00  0.00000000E+00
  0.00000000E+00  0.00000000E+00  0.00000000E+00
  0.00000000E+00  0.00000000E+00  0.00000000E+00
  0.00000000E+00  0.00000000E+00  0.00000000E+00
  0.00000000E+00  0.00000000E+00  0.00000000E+00
  0.00000000E+00  0.00000000E+00  0.00000000E+00
  0.00000000E+00  0.00000000E+00  0.00000000E+00
  0.00000000E+00  0.00000000E+00  0.00000000E+00
  0.00000000E+00  0.00000000E+00  0.00000000E+00
  0.00000000E+00  0.00000000E+00  0.00000000E+00
  0.00000000E+00  0.00000000E+00  0.00000000E+00
  0.00000000E+00  0.00000000E+00  0.00000000E+00
  0.00000000E+00  0.00000000E+00  0.00000000E+00
  0.00000000E+00  0.00000000E+00  0.00000000E+00
  0.00000000E+00  0.00000000E+00  0.00000000E+00
  0.00000000E+00  0.00000000E+00  0.00000000E+00
  0.00000000E+00  0.00000000E+00  0.00000000E+00
  0.00000000E+00  0.00000000E+00  0.00000000E+00
  0.00000000E+00  0.00000000E+00  0.00000000E+00
  0.00000000E+00  0.00000000E+00  0.00000000E+00
  0.00000000E+00  0.00000000E+00  0.00000000E+00
  0.00000000E+00  0.00000000E+00  0.00000000E+00
  0.00000000E+00  0.00000000E+00  0.00000000E+00
  0.00000000E+00  0.00000000E+00  0.00000000E+00
  0.00000000E+00  0.00000000E+00  0.00000000E+00
  0.00000000E+00  0.00000000E+00  0.00000000E+00
  0.00000000E+00  0.00000000E+00  0.00000000E+00
  0.00000000E+00  0.00000000E+00  0.00000000E+00
  0.00000000E+00  0.00000000E+00  0.00000000E+00
  0.00000000E+00  0.00000000E+00  0.00000000E+00
  0.00000000E+00  0.00000000E+00  0.00000000E+00
  0.00000000E+00  0.00000000E+00  0.00000000E+00
  0.00000000E+00  0.00000000E+00  0.00000000E+00
  0.00000000E+00  0.00000000E+00  0.00000000E+00
  0.00000000E+00  0.00000000E+00  0.00000000E+00
  0.00000000E+00  0.00000000E+00  0.00000000E+00
  0.00000000E+00  0.00000000E+00  0.00000000E+00
  0.00000000E+00  0.00000000E+00  0.00000000E+00
