Ga3 As5                                 
   1.00000000000000     
     5.6265999999999998    0.0000000000000000    0.0000000000000000
     0.0000000000000000    5.6265999999999998    0.0000000000000000
     0.0000000000000000    0.0000000000000000    5.6265999999999998
   Ga   As
   3   5
Direct
  0.5000000000000000  0.5000000000000000  0.0000000000000000
  0.0000000000000000  0.5000000000000000  0.5000000000000000
  0.5000000000000000  0.0000000000000000  0.5000000000000000
  0.0000000000000000  0.0000000000000000  0.0000000000000000
  0.2566100000000020  0.2566100000000020  0.2566100000000020
  0.7433899999999980  0.7433899999999980  0.2566100000000020
  0.2566100000000020  0.7433899999999980  0.7433899999999980
  0.7433899999999980  0.2566100000000020  0.7433899999999980
 
  0.00000000E+00  0.00000000E+00  0.00000000E+00
  0.00000000E+00  0.00000000E+00  0.00000000E+00
  0.00000000E+00  0.00000000E+00  0.00000000E+00
  0.00000000E+00  0.00000000E+00  0.00000000E+00
  0.00000000E+00  0.00000000E+00  0.00000000E+00
  0.00000000E+00  0.00000000E+00  0.00000000E+00
  0.00000000E+00  0.00000000E+00  0.00000000E+00
  0.00000000E+00  0.00000000E+00  0.00000000E+00
