Al31
1.0
8.087054 0.000000 0.000000
0.000000 8.087054 0.000000
0.000000 0.000000 8.087054
Al
31
direct
0.375008 0.500000 0.375008 Al
0.993421 0.000000 0.993421 Al
0.249624 0.000000 0.249624 Al
0.249165 0.249164 0.000345 Al
0.000345 0.249164 0.249165 Al
0.504930 0.000000 0.997308 Al
0.752702 0.000000 0.245062 Al
0.748730 0.241512 1.001276 Al
0.508602 0.239210 0.241384 Al
0.002426 0.500000 0.002426 Al
0.249165 0.750836 0.000345 Al
0.000345 0.750836 0.249165 Al
0.498430 0.500000 0.009130 Al
0.740891 0.500000 0.251555 Al
0.748730 0.758488 1.001276 Al
0.508602 0.760790 0.241384 Al
0.997308 0.000000 0.504930 Al
0.245062 0.000000 0.752702 Al
0.241384 0.239210 0.508602 Al
1.001276 0.241512 0.748730 Al
0.500368 0.000000 0.500368 Al
0.756590 0.000000 0.756590 Al
0.749669 0.249159 0.500828 Al
0.500828 0.249159 0.749669 Al
0.009130 0.500000 0.498430 Al
0.251555 0.500000 0.740891 Al
0.241384 0.760790 0.508602 Al
1.001276 0.758488 0.748730 Al
0.747589 0.500000 0.747589 Al
0.749669 0.750841 0.500828 Al
0.500828 0.750841 0.749669 Al
