Al3                                     
   1.00000000000000     
     3.5000000000000000    0.0000000000000000    0.0000000000000000
     0.0000000000000000    3.5000000000000000    0.0000000000000000
     0.0000000000000000    0.0000000000000000    3.5000000000000000
   Al
   3
Direct
  0.2500000000000000  0.2500000000000000  0.0000000000000000
 -0.0274637564098578  0.5274637564098579  0.5000000000000000
  0.5274637564098578 -0.0274637564098578  0.5000000000000000
 
  0.00000000E+00  0.00000000E+00  0.00000000E+00
  0.00000000E+00  0.00000000E+00  0.00000000E+00
  0.00000000E+00  0.00000000E+00  0.00000000E+00
