Mg1 Al32
1.0
8.087052 0.000000 0.000000
0.000000 8.087052 0.000000
0.000000 0.000000 8.087052
Al Mg
32 1
direct
0.002941 0.002941 0.002941 Al
0.251509 -0.001171 0.251509 Al
0.251509 0.251509 -0.001171 Al
-0.001171 0.251509 0.251509 Al
0.493651 -0.006371 -0.006371 Al
0.741561 0.016792 0.243434 Al
0.741561 0.243434 0.016792 Al
0.490655 0.248995 0.248995 Al
-0.006371 0.493651 -0.006371 Al
0.248995 0.490655 0.248995 Al
0.243434 0.741561 0.016792 Al
0.016792 0.741561 0.243434 Al
0.505808 0.505808 -0.020531 Al
0.741132 0.482456 0.240235 Al
0.755548 0.755548 0.045154 Al
0.482456 0.741132 0.240235 Al
-0.006371 -0.006371 0.493651 Al
0.243434 0.016792 0.741561 Al
0.248995 0.248995 0.490655 Al
0.016792 0.243434 0.741561 Al
0.505808 -0.020531 0.505808 Al
0.755548 0.045154 0.755548 Al
0.741132 0.240235 0.482456 Al
0.482456 0.240235 0.741132 Al
-0.020531 0.505808 0.505808 Al
0.240235 0.482456 0.741132 Al
0.240235 0.741132 0.482456 Al
0.045154 0.755548 0.755548 Al
0.507284 0.507284 0.507284 Al
0.752114 0.413276 0.752114 Al
0.752114 0.752114 0.413276 Al
0.413276 0.752114 0.752114 Al
0.724484 0.724484 0.724484 Mg

0.000000 0.000000 0.000000
0.000000 0.000000 0.000000
0.000000 0.000000 0.000000
0.000000 0.000000 0.000000
0.000000 0.000000 0.000000
0.000000 0.000000 0.000000
0.000000 0.000000 0.000000
0.000000 0.000000 0.000000
0.000000 0.000000 0.000000
0.000000 0.000000 0.000000
0.000000 0.000000 0.000000
0.000000 0.000000 0.000000
0.000000 0.000000 0.000000
0.000000 0.000000 0.000000
0.000000 0.000000 0.000000
0.000000 0.000000 0.000000
0.000000 0.000000 0.000000
0.000000 0.000000 0.000000
0.000000 0.000000 0.000000
0.000000 0.000000 0.000000
0.000000 0.000000 0.000000
0.000000 0.000000 0.000000
0.000000 0.000000 0.000000
0.000000 0.000000 0.000000
0.000000 0.000000 0.000000
0.000000 0.000000 0.000000
0.000000 0.000000 0.000000
0.000000 0.000000 0.000000
0.000000 0.000000 0.000000
0.000000 0.000000 0.000000
0.000000 0.000000 0.000000
0.000000 0.000000 0.000000
0.000000 0.000000 0.000000
