Mg1 Al32                                
   1.00000000000000     
     8.0870400000000000    0.0000000000000000    0.0000000000000000
     0.0000000000000000    8.0870400000000000    0.0000000000000000
     0.0000000000000000    0.0000000000000000    8.0870400000000000
   Al   Mg
  32   1
Direct
  0.0018069999999994  0.0018069999999994  0.0018069999999994
  0.2513480000000001  0.0013250000000014  0.2513480000000001
  0.2513480000000001  0.2513480000000001  0.0013250000000014
  0.0013250000000014  0.2513480000000001  0.2513480000000001
  0.4967359999999985  0.9920509999999965  0.9920509999999965
  0.7403740000000028  0.0182209999999969  0.2449179999999984
  0.7403740000000028  0.2449179999999984  0.0182209999999969
  0.4904110000000017  0.2510490000000019  0.2510490000000019
  0.9920509999999965  0.4967359999999985  0.9920509999999965
  0.2510490000000019  0.4904110000000017  0.2510490000000019
  0.2449179999999984  0.7403740000000028  0.0182209999999969
  0.0182209999999969  0.7403740000000028  0.2449179999999984
  0.5063200000000023  0.5063200000000023  0.9864770000000007
  0.7472440000000020  0.4858580000000003  0.2421909999999983
  0.7582609999999974  0.7582609999999974  0.0499000000000009
  0.4858580000000003  0.7472440000000020  0.2421909999999983
  0.9920509999999965  0.9920509999999965  0.4967359999999985
  0.2449179999999984  0.0182209999999969  0.7403740000000028
  0.2510490000000019  0.2510490000000019  0.4904110000000017
  0.0182209999999969  0.2449179999999984  0.7403740000000028
  0.5063200000000023  0.9864770000000007  0.5063200000000023
  0.7582609999999974  0.0499000000000009  0.7582609999999974
  0.7472440000000020  0.2421909999999983  0.4858580000000003
  0.4858580000000003  0.2421909999999983  0.7472440000000020
  0.9864770000000007  0.5063200000000023  0.5063200000000023
  0.2421909999999983  0.4858580000000003  0.7472440000000020
  0.2421909999999983  0.7472440000000020  0.4858580000000003
  0.0499000000000009  0.7582609999999974  0.7582609999999974
  0.5093660000000000  0.5093660000000000  0.5093660000000000
  0.7538180000000025  0.4142370000000000  0.7538180000000025
  0.7538180000000025  0.7538180000000025  0.4142370000000000
  0.4142370000000000  0.7538180000000025  0.7538180000000025
  0.7264350000000022  0.7264350000000022  0.7264350000000022
 
  0.00000000E+00  0.00000000E+00  0.00000000E+00
  0.00000000E+00  0.00000000E+00  0.00000000E+00
  0.00000000E+00  0.00000000E+00  0.00000000E+00
  0.00000000E+00  0.00000000E+00  0.00000000E+00
  0.00000000E+00  0.00000000E+00  0.00000000E+00
  0.00000000E+00  0.00000000E+00  0.00000000E+00
  0.00000000E+00  0.00000000E+00  0.00000000E+00
  0.00000000E+00  0.00000000E+00  0.00000000E+00
  0.00000000E+00  0.00000000E+00  0.00000000E+00
  0.00000000E+00  0.00000000E+00  0.00000000E+00
  0.00000000E+00  0.00000000E+00  0.00000000E+00
  0.00000000E+00  0.00000000E+00  0.00000000E+00
  0.00000000E+00  0.00000000E+00  0.00000000E+00
  0.00000000E+00  0.00000000E+00  0.00000000E+00
  0.00000000E+00  0.00000000E+00  0.00000000E+00
  0.00000000E+00  0.00000000E+00  0.00000000E+00
  0.00000000E+00  0.00000000E+00  0.00000000E+00
  0.00000000E+00  0.00000000E+00  0.00000000E+00
  0.00000000E+00  0.00000000E+00  0.00000000E+00
  0.00000000E+00  0.00000000E+00  0.00000000E+00
  0.00000000E+00  0.00000000E+00  0.00000000E+00
  0.00000000E+00  0.00000000E+00  0.00000000E+00
  0.00000000E+00  0.00000000E+00  0.00000000E+00
  0.00000000E+00  0.00000000E+00  0.00000000E+00
  0.00000000E+00  0.00000000E+00  0.00000000E+00
  0.00000000E+00  0.00000000E+00  0.00000000E+00
  0.00000000E+00  0.00000000E+00  0.00000000E+00
  0.00000000E+00  0.00000000E+00  0.00000000E+00
  0.00000000E+00  0.00000000E+00  0.00000000E+00
  0.00000000E+00  0.00000000E+00  0.00000000E+00
  0.00000000E+00  0.00000000E+00  0.00000000E+00
  0.00000000E+00  0.00000000E+00  0.00000000E+00
  0.00000000E+00  0.00000000E+00  0.00000000E+00
