Fe4
1.0
3.600000 0.000000 0.000000
0.000000 3.600000 0.000000
0.000000 0.000000 3.600000
Fe
4
direct
0.000000 0.000000 0.000000 Fe
0.000000 0.500000 0.500000 Fe
0.500000 0.000000 0.500000 Fe
0.500000 0.500000 0.000000 Fe
