KPOINTS File, automatically generated by KPPRA - aflow with Kpoints=1000  [KPPRA=640]
0
M
2 2 2
0 0 0
