Al3                                     
   1.00000000000000     
     4.0862660000000002    0.0000000000000000    0.0000000000000000
     0.0000000000000000    4.0862660000000002    0.0000000000000000
     0.0000000000000000    0.0000000000000000    4.0862660000000002
   Al
   3
Selective dynamics
Direct
  0.0000000000000000 -0.0024472219870170  0.0000000000000000   F   T   F
  0.0000000000000000  0.5000000000000000  0.5000000000000000   F   F   F
  0.5000000000000000  0.0000000000000000  0.5000000000000000   F   F   F
 
  0.00000000E+00  0.00000000E+00  0.00000000E+00
  0.00000000E+00  0.00000000E+00  0.00000000E+00
  0.00000000E+00  0.00000000E+00  0.00000000E+00
