Al3
1.0
4.086266 0.000000 0.000000
0.000000 4.086266 0.000000
0.000000 0.000000 4.086266
Al
3
Selective dynamics
direct
0.000000 0.000000 0.000000 F T F Al
0.000000 0.500000 0.500000 F F F Al
0.500000 0.000000 0.500000 F F F Al
