Al3                                     
   1.00000000000000     
     3.5000000000000000    0.0000000000000000    0.0000000000000000
     0.0000000000000000    3.5000000000000000    0.0000000000000000
     0.0000000000000000    0.0000000000000000    3.5000000000000000
   Al
   3
Direct
  0.2500000000000000  0.2500000000000000  0.0000000000000000
  0.9680447797921401  0.5319552202078599  0.5000000000000000
  0.5319552202078599  0.9680447797921401  0.5000000000000000
 
  0.00000000E+00  0.00000000E+00  0.00000000E+00
  0.00000000E+00  0.00000000E+00  0.00000000E+00
  0.00000000E+00  0.00000000E+00  0.00000000E+00
