Ga3 As4
1.0
6.000000 1.000000 1.000000
2.000000 6.000000 2.000000
3.000000 3.000000 6.000000
3 4
direct
0.500000 0.500000 0.000000 T T T Ga
0.000000 0.500000 0.500000 F F F Ga
0.500000 0.000000 0.500000 F F F Ga
0.311950 0.311950 0.311950 F F F As
0.688050 0.688050 0.311950 F F F As
0.311950 0.688050 0.688050 F F F As
0.688050 0.311950 0.688050 F F F As
