Al31                                    
   1.00000000000000     
     8.0870519999999999    0.0000000000000000    0.0000000000000000
     0.0000000000000000    8.0870519999999999    0.0000000000000000
     0.0000000000000000    0.0000000000000000    8.0870519999999999
   Al
  31
Direct
 -0.0005612378236254  0.0000000000000000 -0.0005612378236254
  0.2500000000000000  0.0000000000000000  0.2500000000000000
  0.2500000000000000  0.2532715953473584  0.0032715953473583
  0.0032715953473583  0.2532715953473584  0.2500000000000000
  0.5005612378236255  0.0000000000000000 -0.0005612378236254
  0.7500000000000000  0.0000000000000000  0.2500000000000000
  0.7500000000000000  0.2494387621763746 -0.0005612378236254
  0.4967284046526416  0.2532715953473584  0.2500000000000000
  0.0032715953473583  0.5000000000000000  0.0032715953473583
  0.2500000000000000  0.7467284046526417  0.0032715953473583
  0.0032715953473583  0.7467284046526417  0.2500000000000000
  0.4967284046526416  0.5000000000000000  0.0032715953473583
  0.7500000000000000  0.5000000000000000  0.2500000000000000
  0.7500000000000000  0.7505612378236255 -0.0005612378236254
  0.4967284046526416  0.7467284046526417  0.2500000000000000
 -0.0005612378236254  0.0000000000000000  0.5005612378236255
  0.2500000000000000  0.0000000000000000  0.7500000000000000
  0.2500000000000000  0.2532715953473584  0.4967284046526416
 -0.0005612378236254  0.2494387621763746  0.7500000000000000
  0.5005612378236255  0.0000000000000000  0.5005612378236255
  0.7500000000000000  0.0000000000000000  0.7500000000000000
  0.7500000000000000  0.2494387621763746  0.5005612378236255
  0.5005612378236255  0.2494387621763746  0.7500000000000000
  0.0032715953473583  0.5000000000000000  0.4967284046526416
  0.2500000000000000  0.5000000000000000  0.7500000000000000
  0.2500000000000000  0.7467284046526417  0.4967284046526416
 -0.0005612378236254  0.7505612378236255  0.7500000000000000
  0.4967284046526416  0.5000000000000000  0.4967284046526416
  0.7500000000000000  0.5000000000000000  0.7500000000000000
  0.7500000000000000  0.7505612378236255  0.5005612378236255
  0.5005612378236255  0.7505612378236255  0.7500000000000000
 
  0.00000000E+00  0.00000000E+00  0.00000000E+00
  0.00000000E+00  0.00000000E+00  0.00000000E+00
  0.00000000E+00  0.00000000E+00  0.00000000E+00
  0.00000000E+00  0.00000000E+00  0.00000000E+00
  0.00000000E+00  0.00000000E+00  0.00000000E+00
  0.00000000E+00  0.00000000E+00  0.00000000E+00
  0.00000000E+00  0.00000000E+00  0.00000000E+00
  0.00000000E+00  0.00000000E+00  0.00000000E+00
  0.00000000E+00  0.00000000E+00  0.00000000E+00
  0.00000000E+00  0.00000000E+00  0.00000000E+00
  0.00000000E+00  0.00000000E+00  0.00000000E+00
  0.00000000E+00  0.00000000E+00  0.00000000E+00
  0.00000000E+00  0.00000000E+00  0.00000000E+00
  0.00000000E+00  0.00000000E+00  0.00000000E+00
  0.00000000E+00  0.00000000E+00  0.00000000E+00
  0.00000000E+00  0.00000000E+00  0.00000000E+00
  0.00000000E+00  0.00000000E+00  0.00000000E+00
  0.00000000E+00  0.00000000E+00  0.00000000E+00
  0.00000000E+00  0.00000000E+00  0.00000000E+00
  0.00000000E+00  0.00000000E+00  0.00000000E+00
  0.00000000E+00  0.00000000E+00  0.00000000E+00
  0.00000000E+00  0.00000000E+00  0.00000000E+00
  0.00000000E+00  0.00000000E+00  0.00000000E+00
  0.00000000E+00  0.00000000E+00  0.00000000E+00
  0.00000000E+00  0.00000000E+00  0.00000000E+00
  0.00000000E+00  0.00000000E+00  0.00000000E+00
  0.00000000E+00  0.00000000E+00  0.00000000E+00
  0.00000000E+00  0.00000000E+00  0.00000000E+00
  0.00000000E+00  0.00000000E+00  0.00000000E+00
  0.00000000E+00  0.00000000E+00  0.00000000E+00
  0.00000000E+00  0.00000000E+00  0.00000000E+00
