Al31
1.0
8.087052 0.000000 0.000000
0.000000 8.087052 0.000000
0.000000 0.000000 8.087052
Al
31
direct
0.000435 0.000000 0.000435 Al
0.250000 0.000000 0.250000 Al
0.250000 0.242656 -0.007344 Al
-0.007344 0.242656 0.250000 Al
0.499565 0.000000 0.000435 Al
0.750000 0.000000 0.250000 Al
0.750000 0.250435 0.000435 Al
0.507344 0.242656 0.250000 Al
-0.007344 0.500000 -0.007344 Al
0.250000 0.757344 -0.007344 Al
-0.007344 0.757344 0.250000 Al
0.507344 0.500000 -0.007344 Al
0.750000 0.500000 0.250000 Al
0.750000 0.749565 0.000435 Al
0.507344 0.757344 0.250000 Al
0.000435 0.000000 0.499565 Al
0.250000 0.000000 0.750000 Al
0.250000 0.242656 0.507344 Al
0.000435 0.250435 0.750000 Al
0.499565 0.000000 0.499565 Al
0.750000 0.000000 0.750000 Al
0.750000 0.250435 0.499565 Al
0.499565 0.250435 0.750000 Al
-0.007344 0.500000 0.507344 Al
0.250000 0.500000 0.750000 Al
0.250000 0.757344 0.507344 Al
0.000435 0.749565 0.750000 Al
0.507344 0.500000 0.507344 Al
0.750000 0.500000 0.750000 Al
0.750000 0.749565 0.499565 Al
0.499565 0.749565 0.750000 Al

0.000000 0.000000 0.000000
0.000000 0.000000 0.000000
0.000000 0.000000 0.000000
0.000000 0.000000 0.000000
0.000000 0.000000 0.000000
0.000000 0.000000 0.000000
0.000000 0.000000 0.000000
0.000000 0.000000 0.000000
0.000000 0.000000 0.000000
0.000000 0.000000 0.000000
0.000000 0.000000 0.000000
0.000000 0.000000 0.000000
0.000000 0.000000 0.000000
0.000000 0.000000 0.000000
0.000000 0.000000 0.000000
0.000000 0.000000 0.000000
0.000000 0.000000 0.000000
0.000000 0.000000 0.000000
0.000000 0.000000 0.000000
0.000000 0.000000 0.000000
0.000000 0.000000 0.000000
0.000000 0.000000 0.000000
0.000000 0.000000 0.000000
0.000000 0.000000 0.000000
0.000000 0.000000 0.000000
0.000000 0.000000 0.000000
0.000000 0.000000 0.000000
0.000000 0.000000 0.000000
0.000000 0.000000 0.000000
0.000000 0.000000 0.000000
0.000000 0.000000 0.000000
