Mg1 Al30
1.0
8.087054 0.000000 0.000000
0.000000 8.087054 0.000000
0.000000 0.000000 8.087054
Mg Al
1 30
direct
0.489197 0.500000 0.489197 Mg
0.998954 0.000000 0.998954 Al
0.249211 0.000000 0.249211 Al
0.251537 0.254453 0.005458 Al
0.005458 0.254453 0.251537 Al
0.500108 0.000000 0.996636 Al
0.753827 0.000000 0.250370 Al
0.750950 0.249089 0.997939 Al
0.500186 0.247563 0.245472 Al
0.004384 0.500000 0.004384 Al
0.251537 0.745547 0.005458 Al
0.005458 0.745547 0.251537 Al
0.498717 0.500000 0.003163 Al
0.752558 0.500000 0.247560 Al
0.750950 0.750911 0.997939 Al
0.500186 0.752437 0.245472 Al
0.996636 0.000000 0.500108 Al
0.250370 0.000000 0.753827 Al
0.245472 0.247563 0.500186 Al
0.997939 0.249089 0.750950 Al
0.501757 0.000000 0.501757 Al
0.750412 0.000000 0.750412 Al
0.749619 0.249658 0.499964 Al
0.499964 0.249658 0.749619 Al
0.003163 0.500000 0.498717 Al
0.247560 0.500000 0.752558 Al
0.245472 0.752437 0.500186 Al
0.997939 0.750911 0.750950 Al
0.750897 0.500000 0.750897 Al
0.749619 0.750342 0.499964 Al
0.499964 0.750342 0.749619 Al

0.000000 0.000000 0.000000
0.000000 0.000000 0.000000
0.000000 0.000000 0.000000
0.000000 0.000000 0.000000
0.000000 0.000000 0.000000
0.000000 0.000000 0.000000
0.000000 0.000000 0.000000
0.000000 0.000000 0.000000
0.000000 0.000000 0.000000
0.000000 0.000000 0.000000
0.000000 0.000000 0.000000
0.000000 0.000000 0.000000
0.000000 0.000000 0.000000
0.000000 0.000000 0.000000
0.000000 0.000000 0.000000
0.000000 0.000000 0.000000
0.000000 0.000000 0.000000
0.000000 0.000000 0.000000
0.000000 0.000000 0.000000
0.000000 0.000000 0.000000
0.000000 0.000000 0.000000
0.000000 0.000000 0.000000
0.000000 0.000000 0.000000
0.000000 0.000000 0.000000
0.000000 0.000000 0.000000
0.000000 0.000000 0.000000
0.000000 0.000000 0.000000
0.000000 0.000000 0.000000
0.000000 0.000000 0.000000
0.000000 0.000000 0.000000
0.000000 0.000000 0.000000
