Mg1 Al30                                
   1.00000000000000     
     8.0870540000000002    0.0000000000000000    0.0000000000000000
     0.0000000000000000    8.0870540000000002    0.0000000000000000
     0.0000000000000000    0.0000000000000000    8.0870540000000002
   Mg   Al
   1  30
Selective dynamics
Direct
  0.3749990000000025  0.4999999999999999  0.3731441836478426   T   T   T
  0.0008890000000008  0.0000000000000000  0.0008890000000008   F   F   F
  0.2468670000000017  0.0000000000000000  0.2468670000000017   F   F   F
  0.2494709999999998  0.2555400000000034  0.0048469999999980   F   F   F
  0.0048469999999980  0.2555400000000034  0.2494709999999998   F   F   F
  0.5002289999999974  0.0000000000000000  0.9862559999999974   F   F   F
  0.7637440000000026  0.0000000000000000  0.2497720000000001   F   F   F
  0.7535540000000012  0.2472720000000024  0.9964450000000014   F   F   F
  0.5114379999999983  0.2280939999999987  0.2385629999999992   F   F   F
  0.9999699999999976  0.5000000000000000  0.9999699999999976   F   F   F
  0.2494709999999998  0.7444599999999966  0.0048469999999980   F   F   F
  0.0048469999999980  0.7444599999999966  0.2494709999999998   F   F   F
  0.4987709999999979  0.5000000000000000  0.0032130000000024   F   F   F
  0.7467850000000027  0.5000000000000000  0.2512320000000017   F   F   F
  0.7535540000000012  0.7527279999999976  0.9964450000000014   F   F   F
  0.5114379999999983  0.7719060000000013  0.2385629999999992   F   F   F
  0.9862559999999974  0.0000000000000000  0.5002289999999974   F   F   F
  0.2497720000000001  0.0000000000000000  0.7637440000000026   F   F   F
  0.2385629999999992  0.2280939999999987  0.5114379999999983   F   F   F
  0.9964450000000014  0.2472720000000024  0.7535540000000012   F   F   F
  0.5031329999999983  0.0000000000000000  0.5031329999999983   F   F   F
  0.7491100000000017  0.0000000000000000  0.7491100000000017   F   F   F
  0.7451530000000020  0.2555400000000034  0.5005290000000002   F   F   F
  0.5005290000000002  0.2555400000000034  0.7451530000000020   F   F   F
  0.0032130000000024  0.5000000000000000  0.4987709999999979   F   F   F
  0.2512320000000017  0.5000000000000000  0.7467850000000027   F   F   F
  0.2385629999999992  0.7719060000000013  0.5114379999999983   F   F   F
  0.9964450000000014  0.7527279999999976  0.7535540000000012   F   F   F
  0.7500319999999974  0.5000000000000000  0.7500319999999974   F   F   F
  0.7451530000000020  0.7444599999999966  0.5005290000000002   F   F   F
  0.5005290000000002  0.7444599999999966  0.7451530000000020   F   F   F
 
  0.00000000E+00  0.00000000E+00  0.00000000E+00
  0.00000000E+00  0.00000000E+00  0.00000000E+00
  0.00000000E+00  0.00000000E+00  0.00000000E+00
  0.00000000E+00  0.00000000E+00  0.00000000E+00
  0.00000000E+00  0.00000000E+00  0.00000000E+00
  0.00000000E+00  0.00000000E+00  0.00000000E+00
  0.00000000E+00  0.00000000E+00  0.00000000E+00
  0.00000000E+00  0.00000000E+00  0.00000000E+00
  0.00000000E+00  0.00000000E+00  0.00000000E+00
  0.00000000E+00  0.00000000E+00  0.00000000E+00
  0.00000000E+00  0.00000000E+00  0.00000000E+00
  0.00000000E+00  0.00000000E+00  0.00000000E+00
  0.00000000E+00  0.00000000E+00  0.00000000E+00
  0.00000000E+00  0.00000000E+00  0.00000000E+00
  0.00000000E+00  0.00000000E+00  0.00000000E+00
  0.00000000E+00  0.00000000E+00  0.00000000E+00
  0.00000000E+00  0.00000000E+00  0.00000000E+00
  0.00000000E+00  0.00000000E+00  0.00000000E+00
  0.00000000E+00  0.00000000E+00  0.00000000E+00
  0.00000000E+00  0.00000000E+00  0.00000000E+00
  0.00000000E+00  0.00000000E+00  0.00000000E+00
  0.00000000E+00  0.00000000E+00  0.00000000E+00
  0.00000000E+00  0.00000000E+00  0.00000000E+00
  0.00000000E+00  0.00000000E+00  0.00000000E+00
  0.00000000E+00  0.00000000E+00  0.00000000E+00
  0.00000000E+00  0.00000000E+00  0.00000000E+00
  0.00000000E+00  0.00000000E+00  0.00000000E+00
  0.00000000E+00  0.00000000E+00  0.00000000E+00
  0.00000000E+00  0.00000000E+00  0.00000000E+00
  0.00000000E+00  0.00000000E+00  0.00000000E+00
  0.00000000E+00  0.00000000E+00  0.00000000E+00
