Mg1 Al30
1.0
8.087054 0.000000 0.000000
0.000000 8.087054 0.000000
0.000000 0.000000 8.087054
Mg Al
1 30
direct
0.374999 0.500000 0.374999 Mg
0.000889 0.000000 0.000889 Al
0.246867 0.000000 0.246867 Al
0.249471 0.255540 0.004847 Al
0.004847 0.255540 0.249471 Al
0.500229 0.000000 0.986256 Al
0.763744 0.000000 0.249772 Al
0.753554 0.247272 0.996445 Al
0.511438 0.228094 0.238563 Al
0.999970 0.500000 0.999970 Al
0.249471 0.744460 0.004847 Al
0.004847 0.744460 0.249471 Al
0.498771 0.500000 0.003213 Al
0.746785 0.500000 0.251232 Al
0.753554 0.752728 0.996445 Al
0.511438 0.771906 0.238563 Al
0.986256 0.000000 0.500229 Al
0.249772 0.000000 0.763744 Al
0.238563 0.228094 0.511438 Al
0.996445 0.247272 0.753554 Al
0.503133 0.000000 0.503133 Al
0.749110 0.000000 0.749110 Al
0.745153 0.255540 0.500529 Al
0.500529 0.255540 0.745153 Al
0.003213 0.500000 0.498771 Al
0.251232 0.500000 0.746785 Al
0.238563 0.771906 0.511438 Al
0.996445 0.752728 0.753554 Al
0.750032 0.500000 0.750032 Al
0.745153 0.744460 0.500529 Al
0.500529 0.744460 0.745153 Al

0.000000 0.000000 0.000000
0.000000 0.000000 0.000000
0.000000 0.000000 0.000000
0.000000 0.000000 0.000000
0.000000 0.000000 0.000000
0.000000 0.000000 0.000000
0.000000 0.000000 0.000000
0.000000 0.000000 0.000000
0.000000 0.000000 0.000000
0.000000 0.000000 0.000000
0.000000 0.000000 0.000000
0.000000 0.000000 0.000000
0.000000 0.000000 0.000000
0.000000 0.000000 0.000000
0.000000 0.000000 0.000000
0.000000 0.000000 0.000000
0.000000 0.000000 0.000000
0.000000 0.000000 0.000000
0.000000 0.000000 0.000000
0.000000 0.000000 0.000000
0.000000 0.000000 0.000000
0.000000 0.000000 0.000000
0.000000 0.000000 0.000000
0.000000 0.000000 0.000000
0.000000 0.000000 0.000000
0.000000 0.000000 0.000000
0.000000 0.000000 0.000000
0.000000 0.000000 0.000000
0.000000 0.000000 0.000000
0.000000 0.000000 0.000000
0.000000 0.000000 0.000000
