Mg1 Al30
1.0
8.087054 0.000000 0.000000
0.000000 8.087054 0.000000
0.000000 0.000000 8.087054
Mg Al
1 30
Selective dynamics
direct
0.374999 0.500000 0.374999 T T T Mg
0.000889 0.000000 0.000889 F F F Al
0.246867 0.000000 0.246867 F F F Al
0.249471 0.255540 0.004847 F F F Al
0.004847 0.255540 0.249471 F F F Al
0.500229 0.000000 0.986256 F F F Al
0.763744 0.000000 0.249772 F F F Al
0.753554 0.247272 0.996445 F F F Al
0.511438 0.228094 0.238563 F F F Al
0.999970 0.500000 0.999970 F F F Al
0.249471 0.744460 0.004847 F F F Al
0.004847 0.744460 0.249471 F F F Al
0.498771 0.500000 0.003213 F F F Al
0.746785 0.500000 0.251232 F F F Al
0.753554 0.752728 0.996445 F F F Al
0.511438 0.771906 0.238563 F F F Al
0.986256 0.000000 0.500229 F F F Al
0.249772 0.000000 0.763744 F F F Al
0.238563 0.228094 0.511438 F F F Al
0.996445 0.247272 0.753554 F F F Al
0.503133 0.000000 0.503133 F F F Al
0.749110 0.000000 0.749110 F F F Al
0.745153 0.255540 0.500529 F F F Al
0.500529 0.255540 0.745153 F F F Al
0.003213 0.500000 0.498771 F F F Al
0.251232 0.500000 0.746785 F F F Al
0.238563 0.771906 0.511438 F F F Al
0.996445 0.752728 0.753554 F F F Al
0.750032 0.500000 0.750032 F F F Al
0.745153 0.744460 0.500529 F F F Al
0.500529 0.744460 0.745153 F F F Al

0.000000 0.000000 0.000000
0.000000 0.000000 0.000000
0.000000 0.000000 0.000000
0.000000 0.000000 0.000000
0.000000 0.000000 0.000000
0.000000 0.000000 0.000000
0.000000 0.000000 0.000000
0.000000 0.000000 0.000000
0.000000 0.000000 0.000000
0.000000 0.000000 0.000000
0.000000 0.000000 0.000000
0.000000 0.000000 0.000000
0.000000 0.000000 0.000000
0.000000 0.000000 0.000000
0.000000 0.000000 0.000000
0.000000 0.000000 0.000000
0.000000 0.000000 0.000000
0.000000 0.000000 0.000000
0.000000 0.000000 0.000000
0.000000 0.000000 0.000000
0.000000 0.000000 0.000000
0.000000 0.000000 0.000000
0.000000 0.000000 0.000000
0.000000 0.000000 0.000000
0.000000 0.000000 0.000000
0.000000 0.000000 0.000000
0.000000 0.000000 0.000000
0.000000 0.000000 0.000000
0.000000 0.000000 0.000000
0.000000 0.000000 0.000000
0.000000 0.000000 0.000000
