Ga3 Bi1 As3
1.0
5.626600 0.000000 0.000000
0.000000 5.626600 0.000000
0.000000 0.000000 5.626600
Ga Bi As
3 1 3
direct
0.500000 0.500000 0.000000 Ga
0.000000 0.500000 0.500000 Ga
0.500000 0.000000 0.500000 Ga
0.250000 0.250000 0.250000 Bi
0.750000 0.750000 0.250000 As
0.250000 0.750000 0.750000 As
0.750000 0.250000 0.750000 As
