ENCUT = 600.0
IBRION = 2
ISIF = 3
ISMEAR = 1
ISPIN = 2
LCHARG = False
LWAVE = False
MAGMOM = 40
NPAR = 4
NSW = 191
PREC = Accurate
SIGMA = 0.2
