Al30 Cu1                                
   1.00000000000000     
     8.0870400000000000    0.0000000000000000    0.0000000000000000
     0.0000000000000000    8.0870400000000000    0.0000000000000000
     0.0000000000000000    0.0000000000000000    8.0870400000000000
   Al   Cu
  30   1
Direct
 -0.0041788268506157 -0.0082981336550582 -0.0011015901962188
  0.2461844518711038 -0.0006288581894799  0.2482120905830854
  0.2466613070250558  0.2500000000000000  0.0015829929849214
  0.0030107597424964  0.2500000000000000  0.2482288969533218
  0.5032656585371466 -0.0042320791410746 -0.0033605355806630
  0.7533605355806631 -0.0042320791410746  0.2467343414628535
  0.7540007560697206  0.2500000000000000 -0.0040007560697206
 -0.0041788268506157  0.5082981336550582 -0.0011015901962188
  0.2461844518711038  0.5006288581894799  0.2482120905830854
  0.2461147629516787  0.7500000000000000 -0.0023527729716638
 -0.0035681185932639  0.7500000000000000  0.2467479700055634
  0.5032656585371466  0.5042320791410747 -0.0033605355806630
  0.7533605355806631  0.5042320791410747  0.2467343414628535
  0.7565916262058557  0.7500000000000000 -0.0065916262058557
  0.5004257885603202  0.7500000000000000  0.2495742114396798
  0.0011517906246844 -0.0001444442165620  0.5015288394904879
  0.2484711605095121 -0.0001444442165620  0.7488482093753156
 -0.0043613958455905  0.2500000000000000  0.7543613958455906
  0.5017879094169146 -0.0006288581894799  0.5038155481288962
  0.7511015901962187 -0.0082981336550582  0.7541788268506158
  0.7484170070150785  0.2500000000000000  0.5033386929749442
  0.5017711030466783  0.2500000000000000  0.7469892402575036
  0.0011517906246844  0.5001444442165619  0.5015288394904879
  0.2484711605095121  0.5001444442165619  0.7488482093753156
  0.2494664656712504  0.7500000000000000  0.5005335343287496
 -0.0072563819424278  0.7500000000000000  0.7572563819424279
  0.5017879094169146  0.5006288581894799  0.5038155481288962
  0.7511015901962187  0.5082981336550582  0.7541788268506158
  0.7523527729716638  0.7500000000000000  0.5038852370483214
  0.5032520299944365  0.7500000000000000  0.7535681185932639
  0.2508329773557921  0.2500000000000000  0.4991670226442079
 
  0.00000000E+00  0.00000000E+00  0.00000000E+00
  0.00000000E+00  0.00000000E+00  0.00000000E+00
  0.00000000E+00  0.00000000E+00  0.00000000E+00
  0.00000000E+00  0.00000000E+00  0.00000000E+00
  0.00000000E+00  0.00000000E+00  0.00000000E+00
  0.00000000E+00  0.00000000E+00  0.00000000E+00
  0.00000000E+00  0.00000000E+00  0.00000000E+00
  0.00000000E+00  0.00000000E+00  0.00000000E+00
  0.00000000E+00  0.00000000E+00  0.00000000E+00
  0.00000000E+00  0.00000000E+00  0.00000000E+00
  0.00000000E+00  0.00000000E+00  0.00000000E+00
  0.00000000E+00  0.00000000E+00  0.00000000E+00
  0.00000000E+00  0.00000000E+00  0.00000000E+00
  0.00000000E+00  0.00000000E+00  0.00000000E+00
  0.00000000E+00  0.00000000E+00  0.00000000E+00
  0.00000000E+00  0.00000000E+00  0.00000000E+00
  0.00000000E+00  0.00000000E+00  0.00000000E+00
  0.00000000E+00  0.00000000E+00  0.00000000E+00
  0.00000000E+00  0.00000000E+00  0.00000000E+00
  0.00000000E+00  0.00000000E+00  0.00000000E+00
  0.00000000E+00  0.00000000E+00  0.00000000E+00
  0.00000000E+00  0.00000000E+00  0.00000000E+00
  0.00000000E+00  0.00000000E+00  0.00000000E+00
  0.00000000E+00  0.00000000E+00  0.00000000E+00
  0.00000000E+00  0.00000000E+00  0.00000000E+00
  0.00000000E+00  0.00000000E+00  0.00000000E+00
  0.00000000E+00  0.00000000E+00  0.00000000E+00
  0.00000000E+00  0.00000000E+00  0.00000000E+00
  0.00000000E+00  0.00000000E+00  0.00000000E+00
  0.00000000E+00  0.00000000E+00  0.00000000E+00
  0.00000000E+00  0.00000000E+00  0.00000000E+00
