Fe2
1.0
2.870000 0.000000 0.000000
0.000000 2.870000 0.000000
0.000000 0.000000 2.870000
Fe
2
direct
0.000000 0.000000 0.000000 Fe
0.500000 0.500000 0.500000 Fe
