Fe453
1.0
25.830000 0.000000 0.000000
0.000000 14.350000 0.000000
0.000000 0.000000 14.350000
Fe
453
direct
0.310374 0.500775 0.647526 Fe
0.135666 0.500775 0.550115 Fe
0.200116 0.498429 0.457065 Fe
0.245924 0.498429 0.740578 Fe
0.104846 0.630380 0.609103 Fe
0.341194 0.630380 0.588537 Fe
0.230542 0.373070 0.386934 Fe
0.228170 0.626501 0.387721 Fe
0.217870 0.626501 0.809923 Fe
0.343988 0.372447 0.586883 Fe
0.102051 0.372447 0.610758 Fe
0.284617 0.271553 0.488618 Fe
0.161423 0.271553 0.709024 Fe
0.394990 0.500528 0.698495 Fe
0.051048 0.500528 0.499147 Fe
0.190139 0.402293 0.644885 Fe
0.255901 0.402293 0.552756 Fe
0.277155 0.500093 0.901080 Fe
0.168884 0.500093 0.296562 Fe
0.279963 0.710223 0.496075 Fe
0.223020 0.594274 0.598820 Fe
0.289891 0.527541 0.483173 Fe
0.166077 0.710223 0.701568 Fe
0.277792 0.501090 0.302409 Fe
0.389086 0.501806 0.500496 Fe
0.394808 0.709449 0.492054 Fe
0.340110 0.611904 0.388111 Fe
0.168190 0.696573 0.500440 Fe
0.334032 0.397122 0.400523 Fe
-0.000110 0.000003 0.001092 Fe
0.055470 0.099681 0.100410 Fe
0.111226 0.999777 0.000915 Fe
0.167094 0.099260 0.099438 Fe
0.223155 -0.000093 -0.000363 Fe
0.278945 0.099260 0.098203 Fe
0.334575 0.000101 0.998676 Fe
0.390569 0.099681 0.097231 Fe
0.444944 0.000363 0.998836 Fe
0.500798 0.100997 0.098820 Fe
0.555819 0.200615 0.000376 Fe
0.056280 0.301218 0.099609 Fe
0.109968 0.197258 0.002630 Fe
0.167043 0.299587 0.099460 Fe
0.223117 0.198389 0.000518 Fe
0.278997 0.299587 0.098181 Fe
0.334710 0.199707 0.998941 Fe
0.389760 0.301218 0.098032 Fe
0.444897 0.201297 0.998585 Fe
0.500798 0.301231 0.098820 Fe
0.000635 0.400587 -0.000490 Fe
0.056475 0.500017 0.099628 Fe
0.111810 0.401295 0.999129 Fe
0.167924 0.500209 0.098877 Fe
0.222084 0.398585 0.998753 Fe
0.278115 0.500209 0.098764 Fe
0.333839 0.400635 0.998118 Fe
0.389563 0.500017 0.098013 Fe
0.444750 0.400748 0.998105 Fe
0.500798 0.499886 0.098820 Fe
0.000523 0.599216 -0.000231 Fe
0.056061 0.699540 0.099797 Fe
0.111461 0.599802 0.999645 Fe
0.167046 0.700780 0.099443 Fe
0.222333 0.601739 0.998990 Fe
0.278993 0.700780 0.098198 Fe
0.334005 0.599601 0.998293 Fe
0.389977 0.699540 0.097845 Fe
0.444766 0.599374 0.998174 Fe
0.500798 0.698983 0.098820 Fe
-0.000361 0.801213 0.001574 Fe
0.055555 0.900836 0.100365 Fe
0.110444 0.803073 0.002575 Fe
0.167123 0.901080 0.099436 Fe
0.223311 0.802111 0.000668 Fe
0.278916 0.901080 0.098205 Fe
0.334816 0.800955 0.999164 Fe
0.390484 0.900836 0.097276 Fe
0.444925 0.799540 0.998711 Fe
0.500798 0.900383 0.098820 Fe
0.001096 0.000363 0.198805 Fe
0.056774 0.100456 0.299087 Fe
0.111465 1.000098 0.198965 Fe
0.166824 0.099005 0.297544 Fe
0.222884 -0.000093 0.198003 Fe
0.279001 0.097772 0.295836 Fe
0.334813 -0.000221 0.196726 Fe
0.391572 0.097132 0.294876 Fe
0.446148 0.000003 0.196549 Fe
0.501618 0.099308 0.296187 Fe
0.001141 0.201297 0.199054 Fe
0.057197 0.301056 0.300153 Fe
0.111329 0.199707 0.198698 Fe
0.166524 0.298025 0.296722 Fe
0.222922 0.198389 0.197123 Fe
0.283130 0.291914 0.290900 Fe
0.336071 0.197258 0.195011 Fe
0.390604 0.299799 0.296985 Fe
0.445776 0.200615 0.197265 Fe
0.501034 0.300703 0.297708 Fe
0.001288 0.400748 0.199539 Fe
0.057460 0.499956 0.301229 Fe
0.112200 0.400635 0.199522 Fe
0.223955 0.398585 0.198889 Fe
0.334229 0.401295 0.198511 Fe
0.389954 0.499167 0.298387 Fe
0.445405 0.400587 0.198130 Fe
0.501065 0.500109 0.298314 Fe
0.001274 0.599374 0.199468 Fe
0.057056 0.699470 0.299796 Fe
0.112035 0.599601 0.199351 Fe
0.166040 0.702760 0.296024 Fe
0.223707 0.601739 0.198654 Fe
0.281658 0.708174 0.290894 Fe
0.334578 0.599802 0.197997 Fe
0.392555 0.704690 0.293268 Fe
0.445517 0.599216 0.197872 Fe
0.501150 0.700160 0.297197 Fe
0.001113 0.799540 0.198928 Fe
0.056734 0.900174 0.298999 Fe
0.111223 0.800955 0.198476 Fe
0.167051 0.900787 0.298063 Fe
0.222728 0.802111 0.196973 Fe
0.278923 0.901338 0.296832 Fe
0.335596 0.803073 0.195066 Fe
0.390863 0.901603 0.296077 Fe
0.446400 0.801213 0.196067 Fe
0.501626 0.901108 0.296324 Fe
0.000936 0.000032 0.397221 Fe
0.055527 0.098663 0.497279 Fe
0.112208 1.000265 0.399158 Fe
0.167849 0.100394 0.499594 Fe
0.222969 0.000070 0.397893 Fe
0.279119 0.097578 0.497990 Fe
0.334942 -0.000233 0.397111 Fe
0.391413 0.097450 0.497750 Fe
0.446295 -0.000282 0.396801 Fe
0.501130 0.098636 0.497654 Fe
0.556063 0.198902 0.396762 Fe
0.054184 0.296818 0.496013 Fe
0.112718 0.200429 0.400245 Fe
0.169228 0.305449 0.502721 Fe
0.222257 0.195056 0.394685 Fe
0.338154 0.191155 0.391554 Fe
0.394874 0.290774 0.489838 Fe
0.447460 0.196481 0.394436 Fe
0.501072 0.298570 0.497471 Fe
0.000429 0.399676 0.398079 Fe
0.114209 0.401478 0.403888 Fe
0.445652 0.401033 0.398117 Fe
0.500674 0.500551 0.499123 Fe
0.000375 0.600934 0.397711 Fe
0.054124 0.703756 0.495930 Fe
0.113727 0.598643 0.403041 Fe
0.445858 0.600357 0.397241 Fe
0.501080 0.701937 0.497476 Fe
0.000523 0.801589 0.396699 Fe
0.055877 0.901010 0.497768 Fe
0.112436 0.800251 0.399787 Fe
0.167648 0.900397 0.499068 Fe
0.222695 0.803373 0.396678 Fe
0.278937 0.901233 0.498007 Fe
0.335801 0.804683 0.395477 Fe
0.390794 0.901540 0.497740 Fe
0.447402 0.803868 0.395139 Fe
0.501146 0.901554 0.497674 Fe
0.000345 0.999812 0.598609 Fe
0.054626 0.097450 0.699889 Fe
0.111351 1.000021 0.598729 Fe
0.166921 0.097578 0.699652 Fe
0.223020 0.000413 0.598820 Fe
0.278190 0.100394 0.698049 Fe
0.334688 1.000021 0.598912 Fe
0.390511 0.098663 0.700362 Fe
0.445695 0.999812 0.599032 Fe
0.500465 0.098636 0.699986 Fe
0.555130 0.197454 0.598622 Fe
0.051166 0.290774 0.707805 Fe
0.109136 0.194626 0.597223 Fe
0.223020 0.203712 0.598820 Fe
0.276811 0.305449 0.694921 Fe
0.336904 0.194626 0.600418 Fe
0.391854 0.296818 0.701631 Fe
0.446465 0.197454 0.599020 Fe
0.500523 0.298570 0.700167 Fe
-0.000074 0.397755 0.600576 Fe
0.056951 0.501806 0.697143 Fe
0.156149 0.527541 0.714467 Fe
0.446113 0.397755 0.597065 Fe
0.500921 0.500551 0.698516 Fe
0.000060 0.603107 0.600272 Fe
0.051231 0.709449 0.705589 Fe
0.277849 0.696573 0.697199 Fe
0.391916 0.703756 0.701707 Fe
0.445981 0.603107 0.597369 Fe
0.500515 0.701937 0.700167 Fe
0.555137 0.803059 0.598370 Fe
0.055247 0.901540 0.699902 Fe
0.110620 0.804321 0.598404 Fe
0.167103 0.901233 0.699631 Fe
0.223020 0.800732 0.598820 Fe
0.278391 0.900397 0.698571 Fe
0.335419 0.804321 0.599237 Fe
0.390163 0.901010 0.699875 Fe
0.446458 0.803059 0.599270 Fe
0.500449 0.901554 0.699965 Fe
0.555300 0.999714 0.800836 Fe
0.054467 0.097132 0.902767 Fe
0.111098 0.999770 0.800530 Fe
0.167039 0.097772 0.901805 Fe
0.223071 0.000070 0.799749 Fe
0.279216 0.099005 0.900098 Fe
0.333832 0.000262 0.798481 Fe
0.389264 0.100456 0.898551 Fe
0.445103 1.000035 0.800418 Fe
0.499977 0.099308 0.901456 Fe
0.554135 0.196481 0.803206 Fe
0.055434 0.299799 0.900655 Fe
0.107885 0.191155 0.806084 Fe
0.162909 0.291914 0.906739 Fe
0.223782 0.195056 0.802955 Fe
0.279515 0.298025 0.900920 Fe
0.333322 0.200429 0.797394 Fe
0.388842 0.301056 0.897491 Fe
0.445532 0.198902 0.800878 Fe
0.500561 0.300703 0.899930 Fe
0.000388 0.401033 0.799526 Fe
0.056086 0.499167 0.899254 Fe
0.112007 0.397122 0.797122 Fe
0.168248 0.501090 0.895233 Fe
0.215497 0.373070 0.810704 Fe
0.331830 0.401478 0.793756 Fe
0.388579 0.499956 0.896411 Fe
0.445610 0.399676 0.799561 Fe
0.500530 0.500109 0.899324 Fe
0.000183 0.600357 0.800397 Fe
0.053482 0.704690 0.904376 Fe
0.105929 0.611904 0.809526 Fe
0.164381 0.708174 0.906746 Fe
0.279999 0.702760 0.901617 Fe
0.332312 0.598643 0.794599 Fe
0.388982 0.699470 0.897847 Fe
0.445664 0.600934 0.799930 Fe
0.500445 0.700160 0.900446 Fe
0.554193 0.803868 0.802502 Fe
0.055175 0.901603 0.901561 Fe
0.110238 0.804683 0.802160 Fe
0.167116 0.901338 0.900808 Fe
0.223345 0.803373 0.800962 Fe
0.278989 0.900787 0.899575 Fe
0.333604 0.800251 0.797854 Fe
0.389307 0.900174 0.898641 Fe
0.445517 0.801589 0.800941 Fe
0.499969 0.901108 0.901317 Fe
0.555556 0.000000 0.000000 Fe
0.555556 0.000000 0.200000 Fe
0.555556 0.000000 0.400000 Fe
0.555556 0.000000 0.600000 Fe
0.000000 0.000000 0.800000 Fe
0.000000 0.200000 0.000000 Fe
0.555556 0.200000 0.200000 Fe
0.000000 0.200000 0.400000 Fe
0.000000 0.200000 0.600000 Fe
0.000000 0.200000 0.800000 Fe
0.555556 0.400000 0.000000 Fe
0.555556 0.400000 0.200000 Fe
0.555556 0.400000 0.400000 Fe
0.555556 0.400000 0.600000 Fe
0.555556 0.400000 0.800000 Fe
0.555556 0.600000 0.000000 Fe
0.555556 0.600000 0.200000 Fe
0.555556 0.600000 0.400000 Fe
0.555556 0.600000 0.600000 Fe
0.555556 0.600000 0.800000 Fe
0.555556 0.800000 0.000000 Fe
0.555556 0.800000 0.200000 Fe
0.555556 0.800000 0.400000 Fe
0.000000 0.800000 0.600000 Fe
0.000000 0.800000 0.800000 Fe
0.666667 0.000000 0.000000 Fe
0.666667 0.000000 0.200000 Fe
0.666667 0.000000 0.400000 Fe
0.666667 0.000000 0.600000 Fe
0.666667 0.000000 0.800000 Fe
0.666667 0.200000 0.000000 Fe
0.666667 0.200000 0.200000 Fe
0.666667 0.200000 0.400000 Fe
0.666667 0.200000 0.600000 Fe
0.666667 0.200000 0.800000 Fe
0.666667 0.400000 0.000000 Fe
0.666667 0.400000 0.200000 Fe
0.666667 0.400000 0.400000 Fe
0.666667 0.400000 0.600000 Fe
0.666667 0.400000 0.800000 Fe
0.666667 0.600000 0.000000 Fe
0.666667 0.600000 0.200000 Fe
0.666667 0.600000 0.400000 Fe
0.666667 0.600000 0.600000 Fe
0.666667 0.600000 0.800000 Fe
0.666667 0.800000 0.000000 Fe
0.666667 0.800000 0.200000 Fe
0.666667 0.800000 0.400000 Fe
0.666667 0.800000 0.600000 Fe
0.666667 0.800000 0.800000 Fe
0.611111 0.100000 0.100000 Fe
0.611111 0.100000 0.300000 Fe
0.611111 0.100000 0.500000 Fe
0.611111 0.100000 0.700000 Fe
0.611111 0.100000 0.900000 Fe
0.611111 0.300000 0.100000 Fe
0.611111 0.300000 0.300000 Fe
0.611111 0.300000 0.500000 Fe
0.611111 0.300000 0.700000 Fe
0.611111 0.300000 0.900000 Fe
0.611111 0.500000 0.100000 Fe
0.611111 0.500000 0.300000 Fe
0.611111 0.500000 0.500000 Fe
0.611111 0.500000 0.700000 Fe
0.611111 0.500000 0.900000 Fe
0.611111 0.700000 0.100000 Fe
0.611111 0.700000 0.300000 Fe
0.611111 0.700000 0.500000 Fe
0.611111 0.700000 0.700000 Fe
0.611111 0.700000 0.900000 Fe
0.611111 0.900000 0.100000 Fe
0.611111 0.900000 0.300000 Fe
0.611111 0.900000 0.500000 Fe
0.611111 0.900000 0.700000 Fe
0.611111 0.900000 0.900000 Fe
0.722222 0.100000 0.100000 Fe
0.722222 0.100000 0.300000 Fe
0.722222 0.100000 0.500000 Fe
0.722222 0.100000 0.700000 Fe
0.722222 0.100000 0.900000 Fe
0.722222 0.300000 0.100000 Fe
0.722222 0.300000 0.300000 Fe
0.722222 0.300000 0.500000 Fe
0.722222 0.300000 0.700000 Fe
0.722222 0.300000 0.900000 Fe
0.722222 0.500000 0.100000 Fe
0.722222 0.500000 0.300000 Fe
0.722222 0.500000 0.500000 Fe
0.722222 0.500000 0.700000 Fe
0.722222 0.500000 0.900000 Fe
0.722222 0.700000 0.100000 Fe
0.722222 0.700000 0.300000 Fe
0.722222 0.700000 0.500000 Fe
0.722222 0.700000 0.700000 Fe
0.722222 0.700000 0.900000 Fe
0.722222 0.900000 0.100000 Fe
0.722222 0.900000 0.300000 Fe
0.722222 0.900000 0.500000 Fe
0.722222 0.900000 0.700000 Fe
0.722222 0.900000 0.900000 Fe
0.777778 0.000000 0.000000 Fe
0.777778 0.000000 0.200000 Fe
0.777778 0.000000 0.400000 Fe
0.777778 0.000000 0.600000 Fe
0.777778 0.000000 0.800000 Fe
0.777778 0.200000 0.000000 Fe
0.777778 0.200000 0.200000 Fe
0.777778 0.200000 0.400000 Fe
0.777778 0.200000 0.600000 Fe
0.777778 0.200000 0.800000 Fe
0.777778 0.400000 0.000000 Fe
0.777778 0.400000 0.200000 Fe
0.777778 0.400000 0.400000 Fe
0.777778 0.400000 0.600000 Fe
0.777778 0.400000 0.800000 Fe
0.777778 0.600000 0.000000 Fe
0.777778 0.600000 0.200000 Fe
0.777778 0.600000 0.400000 Fe
0.777778 0.600000 0.600000 Fe
0.777778 0.600000 0.800000 Fe
0.777778 0.800000 0.000000 Fe
0.777778 0.800000 0.200000 Fe
0.777778 0.800000 0.400000 Fe
0.777778 0.800000 0.600000 Fe
0.777778 0.800000 0.800000 Fe
0.888889 0.000000 0.000000 Fe
0.888889 0.000000 0.200000 Fe
0.888889 0.000000 0.400000 Fe
0.888889 0.000000 0.600000 Fe
0.888889 0.000000 0.800000 Fe
0.888889 0.200000 0.000000 Fe
0.888889 0.200000 0.200000 Fe
0.888889 0.200000 0.400000 Fe
0.888889 0.200000 0.600000 Fe
0.888889 0.200000 0.800000 Fe
0.888889 0.400000 0.000000 Fe
0.888889 0.400000 0.200000 Fe
0.888889 0.400000 0.400000 Fe
0.888889 0.400000 0.600000 Fe
0.888889 0.400000 0.800000 Fe
0.888889 0.600000 0.000000 Fe
0.888889 0.600000 0.200000 Fe
0.888889 0.600000 0.400000 Fe
0.888889 0.600000 0.600000 Fe
0.888889 0.600000 0.800000 Fe
0.888889 0.800000 0.000000 Fe
0.888889 0.800000 0.200000 Fe
0.888889 0.800000 0.400000 Fe
0.888889 0.800000 0.600000 Fe
0.888889 0.800000 0.800000 Fe
0.833333 0.100000 0.100000 Fe
0.833333 0.100000 0.300000 Fe
0.833333 0.100000 0.500000 Fe
0.833333 0.100000 0.700000 Fe
0.833333 0.100000 0.900000 Fe
0.833333 0.300000 0.100000 Fe
0.833333 0.300000 0.300000 Fe
0.833333 0.300000 0.500000 Fe
0.833333 0.300000 0.700000 Fe
0.833333 0.300000 0.900000 Fe
0.833333 0.500000 0.100000 Fe
0.833333 0.500000 0.300000 Fe
0.833333 0.500000 0.500000 Fe
0.833333 0.500000 0.700000 Fe
0.833333 0.500000 0.900000 Fe
0.833333 0.700000 0.100000 Fe
0.833333 0.700000 0.300000 Fe
0.833333 0.700000 0.500000 Fe
0.833333 0.700000 0.700000 Fe
0.833333 0.700000 0.900000 Fe
0.833333 0.900000 0.100000 Fe
0.833333 0.900000 0.300000 Fe
0.833333 0.900000 0.500000 Fe
0.833333 0.900000 0.700000 Fe
0.833333 0.900000 0.900000 Fe
0.944444 0.100000 0.100000 Fe
0.944444 0.100000 0.300000 Fe
0.944444 0.100000 0.500000 Fe
0.944444 0.100000 0.700000 Fe
0.944444 0.100000 0.900000 Fe
0.944444 0.300000 0.100000 Fe
0.944444 0.300000 0.300000 Fe
0.944444 0.300000 0.500000 Fe
0.944444 0.300000 0.700000 Fe
0.944444 0.300000 0.900000 Fe
0.944444 0.500000 0.100000 Fe
0.944444 0.500000 0.300000 Fe
0.944444 0.500000 0.500000 Fe
0.944444 0.500000 0.700000 Fe
0.944444 0.500000 0.900000 Fe
0.944444 0.700000 0.100000 Fe
0.944444 0.700000 0.300000 Fe
0.944444 0.700000 0.500000 Fe
0.944444 0.700000 0.700000 Fe
0.944444 0.700000 0.900000 Fe
0.944444 0.900000 0.100000 Fe
0.944444 0.900000 0.300000 Fe
0.944444 0.900000 0.500000 Fe
0.944444 0.900000 0.700000 Fe
0.944444 0.900000 0.900000 Fe
