Fe1027
1.0
22.960000 0.000000 0.000000
0.000000 22.960000 0.000000
0.000000 0.000000 22.960000
Fe
1027
direct
0.349170 0.312984 0.404704 Fe
0.152624 0.312984 0.343822 Fe
0.225130 0.311518 0.285666 Fe
0.276664 0.311518 0.462861 Fe
0.117952 0.393988 0.380689 Fe
0.383843 0.393988 0.367836 Fe
0.259360 0.233169 0.241834 Fe
0.256691 0.391563 0.242325 Fe
0.245103 0.391563 0.506202 Fe
0.386986 0.232779 0.366802 Fe
0.114808 0.232779 0.381724 Fe
0.320194 0.169721 0.305386 Fe
0.181601 0.169721 0.443140 Fe
0.444364 0.312830 0.436559 Fe
0.057429 0.312830 0.311967 Fe
0.213906 0.251433 0.403053 Fe
0.287889 0.251433 0.345473 Fe
0.311800 0.312558 0.563175 Fe
0.189995 0.312558 0.185351 Fe
0.314958 0.443889 0.310047 Fe
0.250897 0.371421 0.374263 Fe
0.326127 0.329713 0.301983 Fe
0.186836 0.443889 0.438480 Fe
0.312516 0.313181 0.189006 Fe
0.437722 0.313629 0.312810 Fe
0.444159 0.443406 0.307534 Fe
0.382624 0.382440 0.242570 Fe
0.189213 0.435358 0.312775 Fe
0.375786 0.248201 0.250327 Fe
-0.000123 0.000002 0.000683 Fe
0.062404 0.062301 0.062757 Fe
0.125129 0.624861 0.000572 Fe
0.187981 0.062037 0.062149 Fe
0.251050 -0.000058 -0.000227 Fe
0.313813 0.062037 0.061377 Fe
0.376396 0.000063 0.624172 Fe
0.439390 0.062301 0.060769 Fe
0.500562 0.000227 0.624273 Fe
0.563397 0.063123 0.061763 Fe
0.625296 0.125384 0.000235 Fe
0.063314 0.188261 0.062256 Fe
0.123714 0.123286 0.001644 Fe
0.187923 0.187242 0.062162 Fe
0.251007 0.123993 0.000324 Fe
0.313871 0.187242 0.061363 Fe
0.376549 0.124817 0.624338 Fe
0.438480 0.188261 0.061270 Fe
0.500510 0.125811 0.624116 Fe
0.563397 0.188270 0.061763 Fe
0.000715 0.250367 -0.000306 Fe
0.063534 0.312511 0.062267 Fe
0.125786 0.250810 0.624456 Fe
0.188915 0.312631 0.061798 Fe
0.249845 0.249116 0.624220 Fe
0.312880 0.312631 0.061727 Fe
0.375569 0.250397 0.623824 Fe
0.438258 0.312511 0.061258 Fe
0.500344 0.250468 0.623815 Fe
0.563397 0.312429 0.061763 Fe
0.000589 0.374510 -0.000144 Fe
0.063068 0.437213 0.062373 Fe
0.125394 0.374876 0.624778 Fe
0.187927 0.437988 0.062152 Fe
0.250125 0.376087 0.624368 Fe
0.313867 0.437988 0.061374 Fe
0.375755 0.374751 0.623933 Fe
0.438724 0.437213 0.061153 Fe
0.500361 0.374608 0.623859 Fe
0.563397 0.436864 0.061763 Fe
-0.000406 0.500758 0.000984 Fe
0.062500 0.563023 0.062728 Fe
0.124249 0.501921 0.001609 Fe
0.188014 0.563175 0.062147 Fe
0.251225 0.501320 0.000418 Fe
0.313780 0.563175 0.061378 Fe
0.376668 0.500597 0.624477 Fe
0.439294 0.563023 0.060797 Fe
0.500540 0.499713 0.624194 Fe
0.563397 0.562740 0.061763 Fe
0.001233 0.000227 0.124253 Fe
0.063871 0.062785 0.186929 Fe
0.125398 0.625061 0.124353 Fe
0.187677 0.061878 0.185965 Fe
0.250745 -0.000058 0.123752 Fe
0.313876 0.061108 0.184897 Fe
0.376665 -0.000138 0.122954 Fe
0.440518 0.060708 0.184297 Fe
0.501916 0.000002 0.122843 Fe
0.564321 0.062068 0.185117 Fe
0.001283 0.125811 0.124409 Fe
0.064347 0.188160 0.187595 Fe
0.125245 0.124817 0.124186 Fe
0.187340 0.186266 0.185451 Fe
0.250787 0.123993 0.123202 Fe
0.318521 0.182446 0.181813 Fe
0.378080 0.123286 0.121882 Fe
0.439429 0.187374 0.185615 Fe
0.501498 0.125384 0.123291 Fe
0.563663 0.187939 0.186068 Fe
0.001449 0.250468 0.124712 Fe
0.064642 0.312473 0.188268 Fe
0.126225 0.250397 0.124701 Fe
0.251949 0.249116 0.124305 Fe
0.376008 0.250810 0.124069 Fe
0.438698 0.311980 0.186492 Fe
0.501080 0.250367 0.123831 Fe
0.563698 0.312568 0.186446 Fe
0.001433 0.374608 0.124667 Fe
0.064188 0.437169 0.187372 Fe
0.126039 0.374751 0.124594 Fe
0.186795 0.439225 0.185015 Fe
0.251670 0.376087 0.124159 Fe
0.316865 0.442609 0.181809 Fe
0.376400 0.374876 0.123748 Fe
0.441625 0.440431 0.183292 Fe
0.501206 0.374510 0.123670 Fe
0.563794 0.437600 0.185748 Fe
0.001252 0.499713 0.124330 Fe
0.063826 0.562609 0.186875 Fe
0.125126 0.500597 0.124047 Fe
0.187932 0.562992 0.186289 Fe
0.250569 0.501320 0.123108 Fe
0.313789 0.563336 0.185520 Fe
0.377545 0.501921 0.121916 Fe
0.439721 0.563502 0.185048 Fe
0.502199 0.500758 0.122542 Fe
0.564329 0.563193 0.185203 Fe
0.001053 0.000020 0.248263 Fe
0.062467 0.061665 0.310800 Fe
0.126233 0.625166 0.249474 Fe
0.188830 0.062747 0.312246 Fe
0.250840 0.000044 0.248683 Fe
0.314009 0.060986 0.311244 Fe
0.376810 -0.000146 0.248194 Fe
0.440340 0.060906 0.311094 Fe
0.502082 -0.000176 0.248001 Fe
0.563772 0.061648 0.311034 Fe
0.625571 0.124314 0.247976 Fe
0.060957 0.185511 0.310008 Fe
0.126807 0.125268 0.250153 Fe
0.190382 0.190905 0.314200 Fe
0.250040 0.121910 0.246678 Fe
0.380423 0.119472 0.244721 Fe
0.444233 0.181733 0.306149 Fe
0.503393 0.122801 0.246522 Fe
0.563706 0.186606 0.310919 Fe
0.000483 0.249797 0.248799 Fe
0.128485 0.250924 0.252430 Fe
0.501359 0.250645 0.248823 Fe
0.563258 0.312845 0.311952 Fe
0.000422 0.375584 0.248569 Fe
0.060889 0.439848 0.309956 Fe
0.127943 0.374152 0.251901 Fe
0.501590 0.375223 0.248276 Fe
0.563715 0.438711 0.310922 Fe
0.000588 0.500993 0.247937 Fe
0.062862 0.563132 0.311105 Fe
0.126490 0.500157 0.249867 Fe
0.188605 0.562748 0.311918 Fe
0.250531 0.502108 0.247924 Fe
0.313804 0.563271 0.311254 Fe
0.377776 0.502927 0.247173 Fe
0.439643 0.563463 0.311088 Fe
0.503328 0.502417 0.246962 Fe
0.563789 0.563471 0.311046 Fe
0.000388 0.624882 0.374131 Fe
0.061454 0.060906 0.437430 Fe
0.125270 0.625013 0.374206 Fe
0.187786 0.060986 0.437282 Fe
0.250897 0.000258 0.374263 Fe
0.312964 0.062747 0.436280 Fe
0.376524 0.625013 0.374320 Fe
0.439325 0.061665 0.437726 Fe
0.501407 0.624882 0.374395 Fe
0.563023 0.061648 0.437491 Fe
0.624521 0.123409 0.374139 Fe
0.057562 0.181733 0.442378 Fe
0.122777 0.121641 0.373264 Fe
0.250897 0.127320 0.374263 Fe
0.311412 0.190905 0.434325 Fe
0.379017 0.121641 0.375261 Fe
0.440836 0.185511 0.438519 Fe
0.502274 0.123409 0.374387 Fe
0.563088 0.186606 0.437605 Fe
-0.000083 0.248597 0.375360 Fe
0.064070 0.313629 0.435714 Fe
0.175667 0.329713 0.446542 Fe
0.501877 0.248597 0.373166 Fe
0.563537 0.312845 0.436572 Fe
0.000067 0.376942 0.375170 Fe
0.057635 0.443406 0.440993 Fe
0.312581 0.435358 0.435749 Fe
0.440906 0.439848 0.438567 Fe
0.501729 0.376942 0.373356 Fe
0.563079 0.438711 0.437605 Fe
0.624530 0.501912 0.373981 Fe
0.062152 0.563463 0.437439 Fe
0.124447 0.502700 0.374003 Fe
0.187991 0.563271 0.437269 Fe
0.250897 0.500457 0.374263 Fe
0.313190 0.562748 0.436607 Fe
0.377347 0.502700 0.374523 Fe
0.438933 0.563132 0.437422 Fe
0.502265 0.501912 0.374544 Fe
0.563005 0.563471 0.437478 Fe
0.624713 0.624821 0.500523 Fe
0.061275 0.060708 0.564229 Fe
0.124985 0.624856 0.500331 Fe
0.187919 0.061108 0.563628 Fe
0.250955 0.000044 0.499843 Fe
0.314118 0.061878 0.562561 Fe
0.375561 0.000164 0.499051 Fe
0.437922 0.062785 0.561594 Fe
0.500740 0.625022 0.500261 Fe
0.562474 0.062068 0.563410 Fe
0.623402 0.122801 0.502003 Fe
0.062363 0.187374 0.562909 Fe
0.121371 0.119472 0.503802 Fe
0.183273 0.182446 0.566712 Fe
0.251755 0.121910 0.501847 Fe
0.314455 0.186266 0.563075 Fe
0.374987 0.125268 0.498371 Fe
0.437448 0.188160 0.560932 Fe
0.501224 0.124314 0.500549 Fe
0.563132 0.187939 0.562456 Fe
0.000436 0.250645 0.499704 Fe
0.063096 0.311980 0.562034 Fe
0.126008 0.248201 0.498201 Fe
0.189279 0.313181 0.559521 Fe
0.242434 0.233169 0.506690 Fe
0.373309 0.250924 0.496098 Fe
0.437152 0.312473 0.560257 Fe
0.501311 0.249797 0.499726 Fe
0.563097 0.312568 0.562078 Fe
0.000205 0.375223 0.500248 Fe
0.060168 0.440431 0.565235 Fe
0.119170 0.382440 0.505954 Fe
0.184929 0.442609 0.566716 Fe
0.314999 0.439225 0.563510 Fe
0.373851 0.374152 0.496625 Fe
0.437605 0.437169 0.561154 Fe
0.501372 0.375584 0.499956 Fe
0.563001 0.437600 0.562779 Fe
0.623467 0.502417 0.501564 Fe
0.062071 0.563502 0.563476 Fe
0.124018 0.502927 0.501350 Fe
0.188006 0.563336 0.563005 Fe
0.251263 0.502108 0.500601 Fe
0.313862 0.562992 0.562234 Fe
0.375304 0.500157 0.498659 Fe
0.437970 0.562609 0.561651 Fe
0.501206 0.500993 0.500588 Fe
0.562465 0.563193 0.563323 Fe
0.625000 0.000000 0.000000 Fe
0.687500 0.062500 0.062500 Fe
0.625000 0.000000 0.125000 Fe
0.687500 0.062500 0.187500 Fe
0.625000 0.000000 0.250000 Fe
0.687500 0.062500 0.312500 Fe
0.625000 0.000000 0.375000 Fe
0.687500 0.062500 0.437500 Fe
0.625000 0.000000 0.500000 Fe
0.687500 0.062500 0.562500 Fe
0.625000 0.000000 0.625000 Fe
0.687500 0.062500 0.687500 Fe
0.625000 0.000000 0.750000 Fe
0.687500 0.062500 0.812500 Fe
0.625000 0.000000 0.875000 Fe
0.687500 0.062500 0.937500 Fe
0.000000 0.125000 0.000000 Fe
0.687500 0.187500 0.062500 Fe
0.625000 0.125000 0.125000 Fe
0.687500 0.187500 0.187500 Fe
0.000000 0.125000 0.250000 Fe
0.687500 0.187500 0.312500 Fe
0.000000 0.125000 0.375000 Fe
0.687500 0.187500 0.437500 Fe
0.000000 0.125000 0.500000 Fe
0.687500 0.187500 0.562500 Fe
0.625000 0.125000 0.625000 Fe
0.687500 0.187500 0.687500 Fe
0.625000 0.125000 0.750000 Fe
0.687500 0.187500 0.812500 Fe
0.625000 0.125000 0.875000 Fe
0.687500 0.187500 0.937500 Fe
0.625000 0.250000 0.000000 Fe
0.687500 0.312500 0.062500 Fe
0.625000 0.250000 0.125000 Fe
0.687500 0.312500 0.187500 Fe
0.625000 0.250000 0.250000 Fe
0.687500 0.312500 0.312500 Fe
0.625000 0.250000 0.375000 Fe
0.687500 0.312500 0.437500 Fe
0.625000 0.250000 0.500000 Fe
0.687500 0.312500 0.562500 Fe
0.625000 0.250000 0.625000 Fe
0.687500 0.312500 0.687500 Fe
0.625000 0.250000 0.750000 Fe
0.687500 0.312500 0.812500 Fe
0.625000 0.250000 0.875000 Fe
0.687500 0.312500 0.937500 Fe
0.625000 0.375000 0.000000 Fe
0.687500 0.437500 0.062500 Fe
0.625000 0.375000 0.125000 Fe
0.687500 0.437500 0.187500 Fe
0.625000 0.375000 0.250000 Fe
0.687500 0.437500 0.312500 Fe
0.625000 0.375000 0.375000 Fe
0.687500 0.437500 0.437500 Fe
0.625000 0.375000 0.500000 Fe
0.687500 0.437500 0.562500 Fe
0.625000 0.375000 0.625000 Fe
0.687500 0.437500 0.687500 Fe
0.625000 0.375000 0.750000 Fe
0.687500 0.437500 0.812500 Fe
0.625000 0.375000 0.875000 Fe
0.687500 0.437500 0.937500 Fe
0.625000 0.500000 0.000000 Fe
0.687500 0.562500 0.062500 Fe
0.625000 0.500000 0.125000 Fe
0.687500 0.562500 0.187500 Fe
0.625000 0.500000 0.250000 Fe
0.687500 0.562500 0.312500 Fe
0.000000 0.500000 0.375000 Fe
0.687500 0.562500 0.437500 Fe
0.000000 0.500000 0.500000 Fe
0.687500 0.562500 0.562500 Fe
0.625000 0.500000 0.625000 Fe
0.687500 0.562500 0.687500 Fe
0.625000 0.500000 0.750000 Fe
0.687500 0.562500 0.812500 Fe
0.625000 0.500000 0.875000 Fe
0.687500 0.562500 0.937500 Fe
0.625000 0.625000 0.000000 Fe
0.687500 0.687500 0.062500 Fe
0.625000 0.625000 0.125000 Fe
0.687500 0.687500 0.187500 Fe
0.625000 0.625000 0.250000 Fe
0.687500 0.687500 0.312500 Fe
0.625000 0.625000 0.375000 Fe
0.687500 0.687500 0.437500 Fe
0.000000 0.000000 0.500000 Fe
0.687500 0.687500 0.562500 Fe
0.625000 0.625000 0.625000 Fe
0.687500 0.687500 0.687500 Fe
0.625000 0.625000 0.750000 Fe
0.687500 0.687500 0.812500 Fe
0.625000 0.625000 0.875000 Fe
0.687500 0.687500 0.937500 Fe
0.625000 0.750000 0.000000 Fe
0.687500 0.812500 0.062500 Fe
0.625000 0.750000 0.125000 Fe
0.687500 0.812500 0.187500 Fe
0.625000 0.750000 0.250000 Fe
0.687500 0.812500 0.312500 Fe
0.625000 0.750000 0.375000 Fe
0.687500 0.812500 0.437500 Fe
0.625000 0.750000 0.500000 Fe
0.687500 0.812500 0.562500 Fe
0.625000 0.750000 0.625000 Fe
0.687500 0.812500 0.687500 Fe
0.625000 0.750000 0.750000 Fe
0.687500 0.812500 0.812500 Fe
0.625000 0.750000 0.875000 Fe
0.687500 0.812500 0.937500 Fe
0.625000 0.875000 0.000000 Fe
0.687500 0.937500 0.062500 Fe
0.625000 0.875000 0.125000 Fe
0.687500 0.937500 0.187500 Fe
0.625000 0.875000 0.250000 Fe
0.687500 0.937500 0.312500 Fe
0.625000 0.875000 0.375000 Fe
0.687500 0.937500 0.437500 Fe
0.625000 0.875000 0.500000 Fe
0.687500 0.937500 0.562500 Fe
0.625000 0.875000 0.625000 Fe
0.687500 0.937500 0.687500 Fe
0.625000 0.875000 0.750000 Fe
0.687500 0.937500 0.812500 Fe
0.625000 0.875000 0.875000 Fe
0.687500 0.937500 0.937500 Fe
0.750000 0.000000 0.000000 Fe
0.812500 0.062500 0.062500 Fe
0.750000 0.000000 0.125000 Fe
0.812500 0.062500 0.187500 Fe
0.750000 0.000000 0.250000 Fe
0.812500 0.062500 0.312500 Fe
0.750000 0.000000 0.375000 Fe
0.812500 0.062500 0.437500 Fe
0.750000 0.000000 0.500000 Fe
0.812500 0.062500 0.562500 Fe
0.750000 0.000000 0.625000 Fe
0.812500 0.062500 0.687500 Fe
0.750000 0.000000 0.750000 Fe
0.812500 0.062500 0.812500 Fe
0.750000 0.000000 0.875000 Fe
0.812500 0.062500 0.937500 Fe
0.750000 0.125000 0.000000 Fe
0.812500 0.187500 0.062500 Fe
0.750000 0.125000 0.125000 Fe
0.812500 0.187500 0.187500 Fe
0.750000 0.125000 0.250000 Fe
0.812500 0.187500 0.312500 Fe
0.750000 0.125000 0.375000 Fe
0.812500 0.187500 0.437500 Fe
0.750000 0.125000 0.500000 Fe
0.812500 0.187500 0.562500 Fe
0.750000 0.125000 0.625000 Fe
0.812500 0.187500 0.687500 Fe
0.750000 0.125000 0.750000 Fe
0.812500 0.187500 0.812500 Fe
0.750000 0.125000 0.875000 Fe
0.812500 0.187500 0.937500 Fe
0.750000 0.250000 0.000000 Fe
0.812500 0.312500 0.062500 Fe
0.750000 0.250000 0.125000 Fe
0.812500 0.312500 0.187500 Fe
0.750000 0.250000 0.250000 Fe
0.812500 0.312500 0.312500 Fe
0.750000 0.250000 0.375000 Fe
0.812500 0.312500 0.437500 Fe
0.750000 0.250000 0.500000 Fe
0.812500 0.312500 0.562500 Fe
0.750000 0.250000 0.625000 Fe
0.812500 0.312500 0.687500 Fe
0.750000 0.250000 0.750000 Fe
0.812500 0.312500 0.812500 Fe
0.750000 0.250000 0.875000 Fe
0.812500 0.312500 0.937500 Fe
0.750000 0.375000 0.000000 Fe
0.812500 0.437500 0.062500 Fe
0.750000 0.375000 0.125000 Fe
0.812500 0.437500 0.187500 Fe
0.750000 0.375000 0.250000 Fe
0.812500 0.437500 0.312500 Fe
0.750000 0.375000 0.375000 Fe
0.812500 0.437500 0.437500 Fe
0.750000 0.375000 0.500000 Fe
0.812500 0.437500 0.562500 Fe
0.750000 0.375000 0.625000 Fe
0.812500 0.437500 0.687500 Fe
0.750000 0.375000 0.750000 Fe
0.812500 0.437500 0.812500 Fe
0.750000 0.375000 0.875000 Fe
0.812500 0.437500 0.937500 Fe
0.750000 0.500000 0.000000 Fe
0.812500 0.562500 0.062500 Fe
0.750000 0.500000 0.125000 Fe
0.812500 0.562500 0.187500 Fe
0.750000 0.500000 0.250000 Fe
0.812500 0.562500 0.312500 Fe
0.750000 0.500000 0.375000 Fe
0.812500 0.562500 0.437500 Fe
0.750000 0.500000 0.500000 Fe
0.812500 0.562500 0.562500 Fe
0.750000 0.500000 0.625000 Fe
0.812500 0.562500 0.687500 Fe
0.750000 0.500000 0.750000 Fe
0.812500 0.562500 0.812500 Fe
0.750000 0.500000 0.875000 Fe
0.812500 0.562500 0.937500 Fe
0.750000 0.625000 0.000000 Fe
0.812500 0.687500 0.062500 Fe
0.750000 0.625000 0.125000 Fe
0.812500 0.687500 0.187500 Fe
0.750000 0.625000 0.250000 Fe
0.812500 0.687500 0.312500 Fe
0.750000 0.625000 0.375000 Fe
0.812500 0.687500 0.437500 Fe
0.750000 0.625000 0.500000 Fe
0.812500 0.687500 0.562500 Fe
0.750000 0.625000 0.625000 Fe
0.812500 0.687500 0.687500 Fe
0.750000 0.625000 0.750000 Fe
0.812500 0.687500 0.812500 Fe
0.750000 0.625000 0.875000 Fe
0.812500 0.687500 0.937500 Fe
0.750000 0.750000 0.000000 Fe
0.812500 0.812500 0.062500 Fe
0.750000 0.750000 0.125000 Fe
0.812500 0.812500 0.187500 Fe
0.750000 0.750000 0.250000 Fe
0.812500 0.812500 0.312500 Fe
0.750000 0.750000 0.375000 Fe
0.812500 0.812500 0.437500 Fe
0.750000 0.750000 0.500000 Fe
0.812500 0.812500 0.562500 Fe
0.750000 0.750000 0.625000 Fe
0.812500 0.812500 0.687500 Fe
0.750000 0.750000 0.750000 Fe
0.812500 0.812500 0.812500 Fe
0.750000 0.750000 0.875000 Fe
0.812500 0.812500 0.937500 Fe
0.750000 0.875000 0.000000 Fe
0.812500 0.937500 0.062500 Fe
0.750000 0.875000 0.125000 Fe
0.812500 0.937500 0.187500 Fe
0.750000 0.875000 0.250000 Fe
0.812500 0.937500 0.312500 Fe
0.750000 0.875000 0.375000 Fe
0.812500 0.937500 0.437500 Fe
0.750000 0.875000 0.500000 Fe
0.812500 0.937500 0.562500 Fe
0.750000 0.875000 0.625000 Fe
0.812500 0.937500 0.687500 Fe
0.750000 0.875000 0.750000 Fe
0.812500 0.937500 0.812500 Fe
0.750000 0.875000 0.875000 Fe
0.812500 0.937500 0.937500 Fe
0.875000 0.000000 0.000000 Fe
0.937500 0.062500 0.062500 Fe
0.875000 0.000000 0.125000 Fe
0.937500 0.062500 0.187500 Fe
0.875000 0.000000 0.250000 Fe
0.937500 0.062500 0.312500 Fe
0.875000 0.000000 0.375000 Fe
0.937500 0.062500 0.437500 Fe
0.875000 0.000000 0.500000 Fe
0.937500 0.062500 0.562500 Fe
0.875000 0.000000 0.625000 Fe
0.937500 0.062500 0.687500 Fe
0.875000 0.000000 0.750000 Fe
0.937500 0.062500 0.812500 Fe
0.875000 0.000000 0.875000 Fe
0.937500 0.062500 0.937500 Fe
0.875000 0.125000 0.000000 Fe
0.937500 0.187500 0.062500 Fe
0.875000 0.125000 0.125000 Fe
0.937500 0.187500 0.187500 Fe
0.875000 0.125000 0.250000 Fe
0.937500 0.187500 0.312500 Fe
0.875000 0.125000 0.375000 Fe
0.937500 0.187500 0.437500 Fe
0.875000 0.125000 0.500000 Fe
0.937500 0.187500 0.562500 Fe
0.875000 0.125000 0.625000 Fe
0.937500 0.187500 0.687500 Fe
0.875000 0.125000 0.750000 Fe
0.937500 0.187500 0.812500 Fe
0.875000 0.125000 0.875000 Fe
0.937500 0.187500 0.937500 Fe
0.875000 0.250000 0.000000 Fe
0.937500 0.312500 0.062500 Fe
0.875000 0.250000 0.125000 Fe
0.937500 0.312500 0.187500 Fe
0.875000 0.250000 0.250000 Fe
0.937500 0.312500 0.312500 Fe
0.875000 0.250000 0.375000 Fe
0.937500 0.312500 0.437500 Fe
0.875000 0.250000 0.500000 Fe
0.937500 0.312500 0.562500 Fe
0.875000 0.250000 0.625000 Fe
0.937500 0.312500 0.687500 Fe
0.875000 0.250000 0.750000 Fe
0.937500 0.312500 0.812500 Fe
0.875000 0.250000 0.875000 Fe
0.937500 0.312500 0.937500 Fe
0.875000 0.375000 0.000000 Fe
0.937500 0.437500 0.062500 Fe
0.875000 0.375000 0.125000 Fe
0.937500 0.437500 0.187500 Fe
0.875000 0.375000 0.250000 Fe
0.937500 0.437500 0.312500 Fe
0.875000 0.375000 0.375000 Fe
0.937500 0.437500 0.437500 Fe
0.875000 0.375000 0.500000 Fe
0.937500 0.437500 0.562500 Fe
0.875000 0.375000 0.625000 Fe
0.937500 0.437500 0.687500 Fe
0.875000 0.375000 0.750000 Fe
0.937500 0.437500 0.812500 Fe
0.875000 0.375000 0.875000 Fe
0.937500 0.437500 0.937500 Fe
0.875000 0.500000 0.000000 Fe
0.937500 0.562500 0.062500 Fe
0.875000 0.500000 0.125000 Fe
0.937500 0.562500 0.187500 Fe
0.875000 0.500000 0.250000 Fe
0.937500 0.562500 0.312500 Fe
0.875000 0.500000 0.375000 Fe
0.937500 0.562500 0.437500 Fe
0.875000 0.500000 0.500000 Fe
0.937500 0.562500 0.562500 Fe
0.875000 0.500000 0.625000 Fe
0.937500 0.562500 0.687500 Fe
0.875000 0.500000 0.750000 Fe
0.937500 0.562500 0.812500 Fe
0.875000 0.500000 0.875000 Fe
0.937500 0.562500 0.937500 Fe
0.875000 0.625000 0.000000 Fe
0.937500 0.687500 0.062500 Fe
0.875000 0.625000 0.125000 Fe
0.937500 0.687500 0.187500 Fe
0.875000 0.625000 0.250000 Fe
0.937500 0.687500 0.312500 Fe
0.875000 0.625000 0.375000 Fe
0.937500 0.687500 0.437500 Fe
0.875000 0.625000 0.500000 Fe
0.937500 0.687500 0.562500 Fe
0.875000 0.625000 0.625000 Fe
0.937500 0.687500 0.687500 Fe
0.875000 0.625000 0.750000 Fe
0.937500 0.687500 0.812500 Fe
0.875000 0.625000 0.875000 Fe
0.937500 0.687500 0.937500 Fe
0.875000 0.750000 0.000000 Fe
0.937500 0.812500 0.062500 Fe
0.875000 0.750000 0.125000 Fe
0.937500 0.812500 0.187500 Fe
0.875000 0.750000 0.250000 Fe
0.937500 0.812500 0.312500 Fe
0.875000 0.750000 0.375000 Fe
0.937500 0.812500 0.437500 Fe
0.875000 0.750000 0.500000 Fe
0.937500 0.812500 0.562500 Fe
0.875000 0.750000 0.625000 Fe
0.937500 0.812500 0.687500 Fe
0.875000 0.750000 0.750000 Fe
0.937500 0.812500 0.812500 Fe
0.875000 0.750000 0.875000 Fe
0.937500 0.812500 0.937500 Fe
0.875000 0.875000 0.000000 Fe
0.937500 0.937500 0.062500 Fe
0.875000 0.875000 0.125000 Fe
0.937500 0.937500 0.187500 Fe
0.875000 0.875000 0.250000 Fe
0.937500 0.937500 0.312500 Fe
0.875000 0.875000 0.375000 Fe
0.937500 0.937500 0.437500 Fe
0.875000 0.875000 0.500000 Fe
0.937500 0.937500 0.562500 Fe
0.875000 0.875000 0.625000 Fe
0.937500 0.937500 0.687500 Fe
0.875000 0.875000 0.750000 Fe
0.937500 0.937500 0.812500 Fe
0.875000 0.875000 0.875000 Fe
0.937500 0.937500 0.937500 Fe
0.000000 0.625000 0.000000 Fe
0.062500 0.687500 0.062500 Fe
0.000000 0.625000 0.125000 Fe
0.062500 0.687500 0.187500 Fe
0.000000 0.625000 0.250000 Fe
0.062500 0.687500 0.312500 Fe
0.000000 0.000000 0.375000 Fe
0.062500 0.687500 0.437500 Fe
0.000000 0.625000 0.500000 Fe
0.062500 0.687500 0.562500 Fe
0.000000 0.625000 0.625000 Fe
0.062500 0.687500 0.687500 Fe
0.000000 0.625000 0.750000 Fe
0.062500 0.687500 0.812500 Fe
0.000000 0.625000 0.875000 Fe
0.062500 0.687500 0.937500 Fe
0.125000 0.000000 0.000000 Fe
0.187500 0.687500 0.062500 Fe
0.125000 0.000000 0.125000 Fe
0.187500 0.687500 0.187500 Fe
0.125000 0.000000 0.250000 Fe
0.187500 0.687500 0.312500 Fe
0.125000 0.000000 0.375000 Fe
0.187500 0.687500 0.437500 Fe
0.125000 0.000000 0.500000 Fe
0.187500 0.687500 0.562500 Fe
0.125000 0.625000 0.625000 Fe
0.187500 0.687500 0.687500 Fe
0.125000 0.625000 0.750000 Fe
0.187500 0.687500 0.812500 Fe
0.125000 0.625000 0.875000 Fe
0.187500 0.687500 0.937500 Fe
0.250000 0.625000 0.000000 Fe
0.312500 0.687500 0.062500 Fe
0.250000 0.625000 0.125000 Fe
0.312500 0.687500 0.187500 Fe
0.250000 0.625000 0.250000 Fe
0.312500 0.687500 0.312500 Fe
0.250000 0.625000 0.375000 Fe
0.312500 0.687500 0.437500 Fe
0.250000 0.625000 0.500000 Fe
0.312500 0.687500 0.562500 Fe
0.250000 0.625000 0.625000 Fe
0.312500 0.687500 0.687500 Fe
0.250000 0.625000 0.750000 Fe
0.312500 0.687500 0.812500 Fe
0.250000 0.625000 0.875000 Fe
0.312500 0.687500 0.937500 Fe
0.375000 0.625000 0.000000 Fe
0.437500 0.687500 0.062500 Fe
0.375000 0.625000 0.125000 Fe
0.437500 0.687500 0.187500 Fe
0.375000 0.625000 0.250000 Fe
0.437500 0.687500 0.312500 Fe
0.375000 0.000000 0.375000 Fe
0.437500 0.687500 0.437500 Fe
0.375000 0.625000 0.500000 Fe
0.437500 0.687500 0.562500 Fe
0.375000 0.625000 0.625000 Fe
0.437500 0.687500 0.687500 Fe
0.375000 0.625000 0.750000 Fe
0.437500 0.687500 0.812500 Fe
0.375000 0.625000 0.875000 Fe
0.437500 0.687500 0.937500 Fe
0.500000 0.625000 0.000000 Fe
0.562500 0.687500 0.062500 Fe
0.500000 0.625000 0.125000 Fe
0.562500 0.687500 0.187500 Fe
0.500000 0.625000 0.250000 Fe
0.562500 0.687500 0.312500 Fe
0.500000 0.000000 0.375000 Fe
0.562500 0.687500 0.437500 Fe
0.500000 0.000000 0.500000 Fe
0.562500 0.687500 0.562500 Fe
0.500000 0.625000 0.625000 Fe
0.562500 0.687500 0.687500 Fe
0.500000 0.625000 0.750000 Fe
0.562500 0.687500 0.812500 Fe
0.500000 0.625000 0.875000 Fe
0.562500 0.687500 0.937500 Fe
0.000000 0.750000 0.000000 Fe
0.062500 0.812500 0.062500 Fe
0.000000 0.750000 0.125000 Fe
0.062500 0.812500 0.187500 Fe
0.000000 0.750000 0.250000 Fe
0.062500 0.812500 0.312500 Fe
0.000000 0.750000 0.375000 Fe
0.062500 0.812500 0.437500 Fe
0.000000 0.750000 0.500000 Fe
0.062500 0.812500 0.562500 Fe
0.000000 0.750000 0.625000 Fe
0.062500 0.812500 0.687500 Fe
0.000000 0.750000 0.750000 Fe
0.062500 0.812500 0.812500 Fe
0.000000 0.750000 0.875000 Fe
0.062500 0.812500 0.937500 Fe
0.125000 0.750000 0.000000 Fe
0.187500 0.812500 0.062500 Fe
0.125000 0.750000 0.125000 Fe
0.187500 0.812500 0.187500 Fe
0.125000 0.750000 0.250000 Fe
0.187500 0.812500 0.312500 Fe
0.125000 0.750000 0.375000 Fe
0.187500 0.812500 0.437500 Fe
0.125000 0.750000 0.500000 Fe
0.187500 0.812500 0.562500 Fe
0.125000 0.750000 0.625000 Fe
0.187500 0.812500 0.687500 Fe
0.125000 0.750000 0.750000 Fe
0.187500 0.812500 0.812500 Fe
0.125000 0.750000 0.875000 Fe
0.187500 0.812500 0.937500 Fe
0.250000 0.750000 0.000000 Fe
0.312500 0.812500 0.062500 Fe
0.250000 0.750000 0.125000 Fe
0.312500 0.812500 0.187500 Fe
0.250000 0.750000 0.250000 Fe
0.312500 0.812500 0.312500 Fe
0.250000 0.750000 0.375000 Fe
0.312500 0.812500 0.437500 Fe
0.250000 0.750000 0.500000 Fe
0.312500 0.812500 0.562500 Fe
0.250000 0.750000 0.625000 Fe
0.312500 0.812500 0.687500 Fe
0.250000 0.750000 0.750000 Fe
0.312500 0.812500 0.812500 Fe
0.250000 0.750000 0.875000 Fe
0.312500 0.812500 0.937500 Fe
0.375000 0.750000 0.000000 Fe
0.437500 0.812500 0.062500 Fe
0.375000 0.750000 0.125000 Fe
0.437500 0.812500 0.187500 Fe
0.375000 0.750000 0.250000 Fe
0.437500 0.812500 0.312500 Fe
0.375000 0.750000 0.375000 Fe
0.437500 0.812500 0.437500 Fe
0.375000 0.750000 0.500000 Fe
0.437500 0.812500 0.562500 Fe
0.375000 0.750000 0.625000 Fe
0.437500 0.812500 0.687500 Fe
0.375000 0.750000 0.750000 Fe
0.437500 0.812500 0.812500 Fe
0.375000 0.750000 0.875000 Fe
0.437500 0.812500 0.937500 Fe
0.500000 0.750000 0.000000 Fe
0.562500 0.812500 0.062500 Fe
0.500000 0.750000 0.125000 Fe
0.562500 0.812500 0.187500 Fe
0.500000 0.750000 0.250000 Fe
0.562500 0.812500 0.312500 Fe
0.500000 0.750000 0.375000 Fe
0.562500 0.812500 0.437500 Fe
0.500000 0.750000 0.500000 Fe
0.562500 0.812500 0.562500 Fe
0.500000 0.750000 0.625000 Fe
0.562500 0.812500 0.687500 Fe
0.500000 0.750000 0.750000 Fe
0.562500 0.812500 0.812500 Fe
0.500000 0.750000 0.875000 Fe
0.562500 0.812500 0.937500 Fe
0.000000 0.875000 0.000000 Fe
0.062500 0.937500 0.062500 Fe
0.000000 0.875000 0.125000 Fe
0.062500 0.937500 0.187500 Fe
0.000000 0.875000 0.250000 Fe
0.062500 0.937500 0.312500 Fe
0.000000 0.875000 0.375000 Fe
0.062500 0.937500 0.437500 Fe
0.000000 0.875000 0.500000 Fe
0.062500 0.937500 0.562500 Fe
0.000000 0.875000 0.625000 Fe
0.062500 0.937500 0.687500 Fe
0.000000 0.875000 0.750000 Fe
0.062500 0.937500 0.812500 Fe
0.000000 0.875000 0.875000 Fe
0.062500 0.937500 0.937500 Fe
0.125000 0.875000 0.000000 Fe
0.187500 0.937500 0.062500 Fe
0.125000 0.875000 0.125000 Fe
0.187500 0.937500 0.187500 Fe
0.125000 0.875000 0.250000 Fe
0.187500 0.937500 0.312500 Fe
0.125000 0.875000 0.375000 Fe
0.187500 0.937500 0.437500 Fe
0.125000 0.875000 0.500000 Fe
0.187500 0.937500 0.562500 Fe
0.125000 0.875000 0.625000 Fe
0.187500 0.937500 0.687500 Fe
0.125000 0.875000 0.750000 Fe
0.187500 0.937500 0.812500 Fe
0.125000 0.875000 0.875000 Fe
0.187500 0.937500 0.937500 Fe
0.250000 0.875000 0.000000 Fe
0.312500 0.937500 0.062500 Fe
0.250000 0.875000 0.125000 Fe
0.312500 0.937500 0.187500 Fe
0.250000 0.875000 0.250000 Fe
0.312500 0.937500 0.312500 Fe
0.250000 0.875000 0.375000 Fe
0.312500 0.937500 0.437500 Fe
0.250000 0.875000 0.500000 Fe
0.312500 0.937500 0.562500 Fe
0.250000 0.875000 0.625000 Fe
0.312500 0.937500 0.687500 Fe
0.250000 0.875000 0.750000 Fe
0.312500 0.937500 0.812500 Fe
0.250000 0.875000 0.875000 Fe
0.312500 0.937500 0.937500 Fe
0.375000 0.875000 0.000000 Fe
0.437500 0.937500 0.062500 Fe
0.375000 0.875000 0.125000 Fe
0.437500 0.937500 0.187500 Fe
0.375000 0.875000 0.250000 Fe
0.437500 0.937500 0.312500 Fe
0.375000 0.875000 0.375000 Fe
0.437500 0.937500 0.437500 Fe
0.375000 0.875000 0.500000 Fe
0.437500 0.937500 0.562500 Fe
0.375000 0.875000 0.625000 Fe
0.437500 0.937500 0.687500 Fe
0.375000 0.875000 0.750000 Fe
0.437500 0.937500 0.812500 Fe
0.375000 0.875000 0.875000 Fe
0.437500 0.937500 0.937500 Fe
0.500000 0.875000 0.000000 Fe
0.562500 0.937500 0.062500 Fe
0.500000 0.875000 0.125000 Fe
0.562500 0.937500 0.187500 Fe
0.500000 0.875000 0.250000 Fe
0.562500 0.937500 0.312500 Fe
0.500000 0.875000 0.375000 Fe
0.562500 0.937500 0.437500 Fe
0.500000 0.875000 0.500000 Fe
0.562500 0.937500 0.562500 Fe
0.500000 0.875000 0.625000 Fe
0.562500 0.937500 0.687500 Fe
0.500000 0.875000 0.750000 Fe
0.562500 0.937500 0.812500 Fe
0.500000 0.875000 0.875000 Fe
0.562500 0.937500 0.937500 Fe
0.000000 0.000000 0.625000 Fe
0.062500 0.062500 0.687500 Fe
0.000000 0.125000 0.625000 Fe
0.062500 0.187500 0.687500 Fe
0.000000 0.250000 0.625000 Fe
0.062500 0.312500 0.687500 Fe
0.000000 0.375000 0.625000 Fe
0.062500 0.437500 0.687500 Fe
0.000000 0.500000 0.625000 Fe
0.062500 0.562500 0.687500 Fe
0.125000 0.000000 0.625000 Fe
0.187500 0.062500 0.687500 Fe
0.125000 0.125000 0.625000 Fe
0.187500 0.187500 0.687500 Fe
0.125000 0.250000 0.000000 Fe
0.187500 0.312500 0.687500 Fe
0.125000 0.375000 0.000000 Fe
0.187500 0.437500 0.687500 Fe
0.125000 0.500000 0.625000 Fe
0.187500 0.562500 0.687500 Fe
0.250000 0.000000 0.625000 Fe
0.312500 0.062500 0.687500 Fe
0.250000 0.125000 0.625000 Fe
0.312500 0.187500 0.687500 Fe
0.250000 0.250000 0.000000 Fe
0.312500 0.312500 0.687500 Fe
0.250000 0.375000 0.000000 Fe
0.312500 0.437500 0.687500 Fe
0.250000 0.500000 0.625000 Fe
0.312500 0.562500 0.687500 Fe
0.375000 0.000000 0.000000 Fe
0.437500 0.062500 0.687500 Fe
0.375000 0.125000 0.000000 Fe
0.437500 0.187500 0.687500 Fe
0.375000 0.250000 0.000000 Fe
0.437500 0.312500 0.687500 Fe
0.375000 0.375000 0.000000 Fe
0.437500 0.437500 0.687500 Fe
0.375000 0.500000 0.000000 Fe
0.437500 0.562500 0.687500 Fe
0.500000 0.000000 0.000000 Fe
0.562500 0.062500 0.687500 Fe
0.500000 0.125000 0.000000 Fe
0.562500 0.187500 0.687500 Fe
0.500000 0.250000 0.000000 Fe
0.562500 0.312500 0.687500 Fe
0.500000 0.375000 0.000000 Fe
0.562500 0.437500 0.687500 Fe
0.500000 0.500000 0.000000 Fe
0.562500 0.562500 0.687500 Fe
0.000000 0.000000 0.750000 Fe
0.062500 0.062500 0.812500 Fe
0.000000 0.125000 0.750000 Fe
0.062500 0.187500 0.812500 Fe
0.000000 0.250000 0.750000 Fe
0.062500 0.312500 0.812500 Fe
0.000000 0.375000 0.750000 Fe
0.062500 0.437500 0.812500 Fe
0.000000 0.500000 0.750000 Fe
0.062500 0.562500 0.812500 Fe
0.125000 0.000000 0.750000 Fe
0.187500 0.062500 0.812500 Fe
0.125000 0.125000 0.750000 Fe
0.187500 0.187500 0.812500 Fe
0.125000 0.250000 0.750000 Fe
0.187500 0.312500 0.812500 Fe
0.125000 0.375000 0.750000 Fe
0.187500 0.437500 0.812500 Fe
0.125000 0.500000 0.750000 Fe
0.187500 0.562500 0.812500 Fe
0.250000 0.000000 0.750000 Fe
0.312500 0.062500 0.812500 Fe
0.250000 0.125000 0.750000 Fe
0.312500 0.187500 0.812500 Fe
0.250000 0.250000 0.750000 Fe
0.312500 0.312500 0.812500 Fe
0.250000 0.375000 0.750000 Fe
0.312500 0.437500 0.812500 Fe
0.250000 0.500000 0.750000 Fe
0.312500 0.562500 0.812500 Fe
0.375000 0.000000 0.750000 Fe
0.437500 0.062500 0.812500 Fe
0.375000 0.125000 0.750000 Fe
0.437500 0.187500 0.812500 Fe
0.375000 0.250000 0.750000 Fe
0.437500 0.312500 0.812500 Fe
0.375000 0.375000 0.750000 Fe
0.437500 0.437500 0.812500 Fe
0.375000 0.500000 0.750000 Fe
0.437500 0.562500 0.812500 Fe
0.500000 0.000000 0.750000 Fe
0.562500 0.062500 0.812500 Fe
0.500000 0.125000 0.750000 Fe
0.562500 0.187500 0.812500 Fe
0.500000 0.250000 0.750000 Fe
0.562500 0.312500 0.812500 Fe
0.500000 0.375000 0.750000 Fe
0.562500 0.437500 0.812500 Fe
0.500000 0.500000 0.750000 Fe
0.562500 0.562500 0.812500 Fe
0.000000 0.000000 0.875000 Fe
0.062500 0.062500 0.937500 Fe
0.000000 0.125000 0.875000 Fe
0.062500 0.187500 0.937500 Fe
0.000000 0.250000 0.875000 Fe
0.062500 0.312500 0.937500 Fe
0.000000 0.375000 0.875000 Fe
0.062500 0.437500 0.937500 Fe
0.000000 0.500000 0.875000 Fe
0.062500 0.562500 0.937500 Fe
0.125000 0.000000 0.875000 Fe
0.187500 0.062500 0.937500 Fe
0.125000 0.125000 0.875000 Fe
0.187500 0.187500 0.937500 Fe
0.125000 0.250000 0.875000 Fe
0.187500 0.312500 0.937500 Fe
0.125000 0.375000 0.875000 Fe
0.187500 0.437500 0.937500 Fe