Fe 
 1.0000000000000000
    14.3499999999999996    0.0000000000000000    0.0000000000000000
     0.0000000000000000   14.3499999999999996    0.0000000000000000
     0.0000000000000000    0.0000000000000000   14.3499999999999996
 Fe
 253
Cartesian
  8.0169499999999996  7.1861199999999990  9.2919999999999998
  3.5042499999999990  7.1861199999999990  7.8941499999999998
  5.1689900000000000  7.1524500000000000  6.5588800000000003
  6.3522099999999986  7.1524499999999991 10.6273000000000000
  2.7081699999999991  9.0459599999999991  8.7406299999999995
  8.8130299999999995  9.0459599999999991  8.4455100000000005
  5.9549099999999999  5.3535599999999999  5.5525000000000002
  5.8936199999999994  8.9902899999999999  5.5637900000000000
  5.6275699999999986  8.9902899999999999 11.6224000000000007
  8.8851999999999993  5.3446099999999994  8.4217700000000004
  2.6359899999999992  5.3446099999999994  8.7643799999999992
  7.3516500000000002  3.8967900000000002  7.0116699999999996
  4.1695499999999992  3.8967900000000002 10.1745000000000001
 10.2026000000000003  7.1825699999999992 10.0234000000000005
  1.3185699999999989  7.1825700000000001  7.1627599999999996
  4.9112799999999988  5.7729100000000004  9.2540999999999993
  6.6099199999999989  5.7729100000000004  7.9320500000000003
  7.1589199999999993  7.1763299999999992 12.9305000000000003
  4.3622800000000002  7.1763300000000001  4.2556700000000003
  7.2314399999999992 10.1917000000000009  7.1186800000000003
  5.7605999999999984  8.5278299999999998  8.5930700000000009
  7.4878799999999988  7.5702199999999999  6.9335300000000002
  4.2897599999999976 10.1917000000000009 10.0675000000000008
  7.1753600000000004  7.1906400000000001  4.3395700000000001
 10.0501000000000005  7.2009200000000000  7.1821200000000003
 10.1979000000000006 10.1806000000000001  7.0609700000000002
  8.7850400000000004  8.7808200000000003  5.5693999999999999
  4.3443399999999990  9.9958200000000001  7.1813200000000004
  8.6280500000000000  5.6986999999999997  5.7474999999999996
 -0.0028353800000000  0.0000418559000000  0.0156712000000000
  1.4327900000000000  1.4304200000000000  1.4408900000000000
  2.8729699999999991 14.3468000000000000  0.0131270000000000
  4.3160499999999997  1.4243800000000000  1.4269300000000000
  5.7641000000000000 -0.0013318500000000 -0.0052067800000000
  7.2051400000000001  1.4243800000000000  1.4092199999999999
  8.6420600000000007  0.0014470199999990 14.3309999999999995
 10.0884000000000000  1.4304200000000000  1.3952599999999999
 11.4929000000000006  0.0052038599999990 14.3332999999999995
 12.9356000000000009  1.4493100000000001  1.4180699999999999
 14.3567999999999998  2.8788200000000002  0.0053985200000000
  1.4537000000000000  4.3224799999999997  1.4293899999999999
  2.8404699999999998  2.8306499999999999  0.0377369000000000
  4.3147200000000003  4.2990700000000004  1.4272499999999999
  5.7631199999999998  2.8468800000000001  0.0074391200000000
  7.2064800000000000  4.2990700000000004  1.4089000000000000
  8.6455699999999993  2.8657899999999992 14.3347999999999995
 10.0675000000000008  4.3224799999999997  1.4067600000000000
 11.4916999999999998  2.8886099999999990 14.3297000000000008
 12.9356000000000009  4.3226699999999996  1.4180699999999999
  0.0164060000000000  5.7484299999999999 -0.0070243400000000
  1.4587500000000000  7.1752500000000001  1.4296599999999999
  2.8880499999999980  5.7585899999999990 14.3375000000000004
  4.3374800000000002  7.1779999999999999  1.4188799999999999
  5.7364399999999991  5.7196999999999987 14.3321000000000005
  7.1837200000000001  7.1779999999999999  1.4172600000000000
  8.6230700000000002  5.7491099999999991 14.3230000000000004
 10.0624000000000002  7.1752500000000001  1.4064900000000000
 11.4878999999999998  5.7507400000000004 14.3228000000000009
 12.9356000000000009  7.1733599999999997  1.4180699999999999
  0.0135189999999990  8.5987500000000008 -0.0033081800000000
  1.4480499999999989 10.0383999999999993  1.4320800000000000
  2.8790499999999990  8.6071600000000004 14.3449000000000009
  4.3148099999999987 10.0562000000000005  1.4270099999999999
  5.7428599999999994  8.6349499999999999 14.3354999999999997
  7.2063799999999993 10.0562000000000005  1.4091400000000001
  8.6273400000000002  8.6042799999999993 14.3254999999999999
 10.0731000000000002 10.0383999999999993  1.4040699999999999
 11.4883000000000006  8.6010100000000005 14.3238000000000003
 12.9356000000000009 10.0304000000000002  1.4180699999999999
 -0.0093307800000010 11.4974000000000007  0.0225854000000000
  1.4349899999999991 12.9269999999999996  1.4402400000000000
  2.8527599999999991 11.5241000000000007  0.0369448000000000
  4.3167899999999992 12.9305000000000003  1.4269000000000001
  5.7681299999999993 11.5103000000000009  0.0095887800000000
  7.2043999999999988 12.9305000000000003  1.4092400000000000
  8.6482899999999994 11.4937000000000005 14.3379999999999992
 10.0861999999999998 12.9269999999999996  1.3959100000000000
 11.4923999999999999 11.4733999999999998 14.3315000000000001
 12.9356000000000009 12.9205000000000005  1.4180699999999999
  0.0283067000000000  0.0052038600000000  2.8528500000000001
  1.4664699999999999  1.4415400000000000  4.2919000000000000
  2.8791399999999991 14.3513999999999999  2.8551500000000001
  4.3090599999999997  1.4207200000000000  4.2697500000000002
  5.7571000000000003 -0.0013318500000000  2.8413499999999998
  7.2065900000000003  1.4030300000000000  4.2452399999999999
  8.6482299999999999 -0.0031712400000000  2.8230200000000001
 10.1143000000000001  1.3938500000000000  4.2314699999999998
 11.5239999999999991  0.0000418559000000  2.8204799999999999
 12.9567999999999994  1.4250700000000001  4.2502899999999997
  0.0294634000000000  2.8886099999999999  2.8564300000000000
  1.4774099999999990  4.3201599999999996  4.3071900000000003
  2.8756300000000001  2.8657900000000001  2.8513099999999998
  4.3013199999999996  4.2766599999999997  4.2579599999999997
  5.7580700000000000  2.8468800000000001  2.8287100000000001
  7.3132400000000004  4.1889599999999998  4.1744199999999996
  8.6807200000000009  2.8306499999999999  2.7984100000000001
 10.0892999999999997  4.3021099999999999  4.2617300000000000
 11.5144000000000002  2.8788200000000002  2.8307500000000001
 12.9417000000000009  4.3150899999999996  4.2721099999999996
  0.0332672999999990  5.7507400000000004  2.8633799999999998
  1.4841899999999990  7.1743699999999997  4.3226300000000002
  2.8981300000000001  5.7491099999999999  2.8631400000000000
  5.7847600000000003  5.7196999999999996  2.8540500000000000
  8.6331399999999991  5.7585899999999999  2.8486300000000000
 10.0724999999999998  7.1630500000000001  4.2818600000000000
 11.5047999999999995  5.7484299999999999  2.8431700000000002
 12.9425000000000008  7.1765600000000003  4.2808000000000002
  0.0329084999999990  8.6010100000000005  2.8623599999999998
  1.4737599999999991 10.0373999999999999  4.3020699999999996
  2.8938600000000001  8.6042799999999993  2.8606799999999999
  4.2888099999999989 10.0846000000000000  4.2479500000000003
  5.7783399999999991  8.6349499999999999  2.8506900000000002
  7.2752299999999988 10.1623000000000001  4.1743300000000003
  8.6421500000000009  8.6071600000000004  2.8412500000000001
 10.1396999999999995 10.1122999999999994  4.2083899999999996
 11.5076999999999998  8.5987500000000008  2.8394599999999999
 12.9446999999999992 10.0472999999999999  4.2647700000000004
  0.0287468999999990 11.4733999999999998  2.8546200000000002
  1.4654399999999990 12.9175000000000004  4.2906399999999998
  2.8728999999999991 11.4937000000000005  2.8481299999999998
  4.3149199999999990 12.9262999999999995  4.2771999999999997
  5.7530699999999992 11.5103000000000009  2.8265600000000002
  7.2045899999999987 12.9342000000000006  4.2595400000000003
  8.6684400000000004 11.5241000000000007  2.7991999999999999
 10.0960000000000001 12.9380000000000006  4.2487100000000000
 11.5305000000000000 11.4974000000000007  2.8135599999999998
 12.9570000000000007 12.9308999999999994  4.2522500000000001
  0.0241879000000000  0.0004635090000000  5.7001200000000001
  1.4342500000000000  1.4158200000000001  7.1359599999999999
  2.8983199999999991 14.3537999999999997  5.7279200000000001
  4.3355399999999999  1.4406600000000001  7.1691700000000003
  5.7592800000000004  0.0010013400000000  5.7097600000000002
  7.2096400000000003  1.4002500000000000  7.1461600000000001
  8.6515500000000003 -0.0033422800000000  5.6985400000000004
 10.1102000000000007  1.3984099999999990  7.1427100000000001
 11.5277999999999992 -0.0040515600000000  5.6940999999999997
 12.9442000000000004  1.4154300000000000  7.1413300000000000
 14.3630999999999993  2.8542500000000000  5.6935300000000000
  1.3995699999999991  4.2593399999999999  7.1177900000000003
  2.9115000000000002  2.8761500000000000  5.7435200000000002
  4.3711599999999997  4.3831899999999999  7.2140399999999998
  5.7409100000000004  2.7990499999999989  5.6637300000000002
  8.7345199999999998  2.7430699999999990  5.6188000000000002
 10.1996000000000002  4.1726000000000001  7.0291800000000002
 11.5579000000000001  2.8195000000000001  5.6601499999999998
 12.9427000000000003  4.2844800000000003  7.1387099999999997
  0.0110840999999990  5.7353500000000004  5.7124300000000003
  2.9500199999999990  5.7612100000000002  5.7957900000000002
 11.5112000000000005  5.7548199999999996  5.7129799999999999
 12.9323999999999995  7.1829099999999997  7.1624200000000000
  0.0096950999999990  8.6234000000000002  5.7071500000000004
  1.3980199999999989 10.0989000000000004  7.1166000000000000
  2.9375699999999991  8.5905299999999993  5.7836400000000001
 11.5165000000000006  8.6151300000000006  5.7004099999999998
 12.9428999999999998 10.0728000000000009  7.1387799999999997
  0.0135103999999990 11.5028000000000006  5.6926300000000003
  1.4433099999999990 12.9295000000000009  7.1429700000000000
  2.9042199999999991 11.4835999999999991  5.7369399999999997
  4.3303599999999989 12.9207000000000001  7.1616299999999997
  5.7521999999999993 11.5283999999999995  5.6923300000000001
  7.2049299999999992 12.9327000000000005  7.1463999999999999
  8.6737400000000004 11.5472000000000001  5.6750999999999996
 10.0942000000000007 12.9370999999999992  7.1425700000000001
 11.5564000000000000 11.5355000000000008  5.6702399999999997
 12.9445999999999994 12.9373000000000005  7.1416199999999996
  0.0089159399999990 14.3473000000000006  8.5900400000000001
  1.4109799999999990  1.3984099999999990 10.0434000000000001
  2.8761999999999990 14.3503000000000007  8.5917600000000007
  4.3115599999999992  1.4002499999999991 10.0399999999999991
  5.7605999999999993  0.0059299399999990  8.5930700000000009
  7.1856599999999986  1.4406599999999989 10.0169999999999995
  8.6449900000000000 14.3503000000000007  8.5943900000000006
 10.0869000000000000  1.4158199999999990 10.0502000000000002
 11.5122999999999998 14.3473000000000006  8.5961099999999995
 12.9269999999999996  1.4154299999999991 10.0448000000000004
 14.3390000000000004  2.8334600000000001  8.5902200000000004
  1.3216299999999990  4.1725999999999992 10.1570000000000000
  2.8189700000000002  2.7928799999999989  8.5701499999999999
  5.7605999999999993  2.9232700000000000  8.5930700000000009
  7.1500299999999992  4.3831899999999990  9.9721100000000007
  8.7022300000000001  2.7928799999999989  8.6159999999999997
 10.1216000000000008  4.2593399999999990 10.0684000000000005
 11.5321999999999996  2.8334600000000001  8.5959299999999992
 12.9284999999999997  4.2844799999999994 10.0473999999999997
 -0.0019048000000010  5.7077799999999987  8.6182700000000008
  1.4710499999999991  7.2009199999999991 10.0039999999999996
  4.0333199999999980  7.5702199999999991 10.2525999999999993
 11.5230999999999995  5.7077799999999987  8.5678800000000006
 12.9388000000000005  7.1829099999999988 10.0236999999999998
  0.0015386099999990  8.6545799999999993  8.6138999999999992
  1.3232999999999990 10.1806000000000001 10.1251999999999995
  7.1768499999999982  9.9958200000000001 10.0047999999999995
 10.1232000000000006 10.0989000000000004 10.0694999999999997
 11.5197000000000003  8.6545799999999993  8.5722500000000004
 12.9283000000000001 10.0728000000000009 10.0473999999999997
 14.3391999999999999 11.5238999999999994  8.5866100000000003
  1.4270199999999980 12.9370999999999992 10.0435999999999996
  2.8573099999999991 11.5419999999999998  8.5870999999999995
  4.3162699999999976 12.9327000000000005 10.0396999999999998
  5.7605999999999984 11.4905000000000008  8.5930700000000009
  7.1908399999999979 12.9207000000000001 10.0244999999999997
  8.6638800000000007 11.5419999999999998  8.5990500000000001
 10.0778999999999996 12.9295000000000009 10.0432000000000006
 11.5320000000000000 11.5238999999999994  8.5995299999999997
 12.9266000000000005 12.9373000000000005 10.0444999999999993
 14.3434000000000008 14.3459000000000003 11.4920000000000009
  1.4068799999999990  1.3938499999999989 12.9547000000000008
  2.8696499999999978 14.3467000000000002 11.4876000000000005
  4.3146099999999992  1.4030299999999989 12.9408999999999992
  5.7619199999999990  0.0010013399999990 11.4763999999999999
  7.2121399999999989  1.4207199999999991 12.9163999999999994
  8.6228800000000003  0.0037566899999990 11.4581999999999997
 10.0547000000000004  1.4415399999999989 12.8941999999999997
 11.4969999999999999 14.3505000000000003 11.4860000000000007
 12.9144000000000005  1.4250699999999989 12.9359000000000002
 14.3132999999999999  2.8194999999999988 11.5259999999999998
  1.4318599999999990  4.3021099999999990 12.9244000000000003
  2.7866799999999992  2.7430699999999990 11.5672999999999995
  4.2079499999999994  4.1889599999999989 13.0116999999999994
  5.7802899999999990  2.7990499999999989 11.5223999999999993
  7.2198799999999990  4.2766599999999988 12.9282000000000004
  8.6097000000000001  2.8761499999999991 11.4426000000000005
 10.0437999999999992  4.3201599999999987 12.8789999999999996
 11.5081000000000007  2.8542499999999991 11.4925999999999995
 12.9295000000000009  4.3150899999999988 12.9139999999999997
  0.0100191999999990  5.7548199999999987 11.4732000000000003
  1.4486899999999989  7.1630499999999993 12.9042999999999992
  2.8931499999999990  5.6986999999999988 11.4387000000000008
  4.3458399999999990  7.1906399999999993 12.8466000000000005
  5.5662799999999990  5.3535599999999990 11.6335999999999995
  8.5711700000000004  5.7612099999999993 11.3903999999999996
 10.0370000000000008  7.1743699999999988 12.8635000000000002
 11.5100999999999996  5.7353500000000004 11.4736999999999991
 12.9286999999999992  7.1765599999999994 12.9053000000000004
  0.0047165099999990  8.6151300000000006 11.4856999999999996
  1.3814499999999990 10.1122999999999994 12.9778000000000002
  2.7361499999999990  8.7808200000000003 11.6166999999999998
  4.2459699999999980 10.1623000000000001 13.0117999999999991
  7.2323799999999983 10.0846000000000000 12.9382000000000001
  8.5836199999999998  8.5905299999999993 11.4024999999999999
 10.0473999999999997 10.0373999999999999 12.8841000000000001
 11.5114999999999998  8.6234000000000002 11.4789999999999992
 12.9265000000000008 10.0472999999999999 12.9214000000000002
 14.3148000000000000 11.5355000000000008 11.5159000000000002
  1.4251599999999980 12.9380000000000006 12.9374000000000002
  2.8474599999999981 11.5472000000000001 11.5109999999999992
  4.3166099999999981 12.9342000000000006 12.9266000000000005
  5.7689899999999978 11.5283999999999995 11.4938000000000002
  7.2062799999999978 12.9262999999999995 12.9088999999999992
  8.6169799999999999 11.4835999999999991 11.4491999999999994
 10.0557999999999996 12.9175000000000004 12.8955000000000002
 11.5076999999999998 11.5028000000000006 11.4934999999999992
 12.9141999999999992 12.9308999999999994 12.9338999999999995

