Mg 
 1.0000000000000000
    12.8399999999999999    0.0000000000000000    0.0000000000000000
    -6.4199999999999973   11.1197661845921942    0.0000000000000000
     0.0000000000000013    0.0000000000000022   20.8399999999999999
 Mg
 131
Cartesian
  2.2426500000000011  3.8843899999999998 10.4199999999999999
  2.2426500000000011  7.2353699999999996 10.4199999999999999
  5.1446900000000024  5.5598799999999997 10.4199999999999999
  4.4834400000000016  6.9987899999999996 12.5470000000000006
  1.3271500000000009  5.9432499999999999 12.5470000000000006
  3.8194100000000009  3.7376000000000000 12.5470000000000006
  4.4834400000000016  4.1209699999999998  8.2929600000000008
  1.3271500000000009  5.1765100000000004  8.2929600000000008
  3.8194100000000022  7.3821599999999998  8.2929600000000008
  0.0099327800000000  1.8290900000000001  3.8376999999999999
  1.5894600000000010  0.8993770000000000  1.2728800000000000
  0.0606547000000000  1.9462800000000000  9.0840800000000002
  1.5643000000000000  0.8709230000000000  6.4665699999999999
 -0.0279045000000000  1.7901800000000001 14.3734000000000002
  1.6552100000000010  1.0256700000000001 11.7559000000000005
 -0.0158463000000000  1.8262000000000000 19.5670999999999999
  1.5790700000000000  0.9231450000000000 17.0023000000000017
 11.3900000000000006  4.6335300000000004  3.8432599999999999
 -0.0418880000000000  3.6865399999999999  1.2602100000000001
 11.4008000000000003  4.6428099999999999  9.1219699999999992
 -0.1214680000000000  3.6153499999999998  6.3235799999999998
 11.4962000000000000  4.6678100000000002 14.3887000000000000
 -0.2532920000000000  3.5759900000000000 11.8299000000000003
 11.4039999999999999  4.6367099999999999 19.5638000000000005
 -0.0652696000000000  3.6614499999999999 17.0605000000000011
 -3.1952500000000001  7.4194100000000001  3.8967299999999998
 -1.6291400000000000  6.4830500000000004  1.2761700000000000
 -3.2254399999999999  7.3948499999999999  9.1256900000000005
 -1.5369400000000000  6.4519500000000001  6.4513299999999996
 -3.1998700000000002  7.4092500000000001 14.3265999999999991
 -1.6322900000000000  6.4769600000000001 11.7180000000000000
 -3.2114400000000001  7.4304899999999998 19.5504999999999995
 -1.6431700000000000  6.4862299999999999 16.9967000000000006
 -4.8169800000000000 10.1771999999999991  3.8967299999999998
 -3.2100000000000000  9.2664700000000000  1.3090900000000001
 -4.8231500000000000 10.2157000000000000  9.1256900000000005
 -3.2100000000000000  9.2664700000000000  6.5288500000000003
 -4.8234700000000004 10.1862999999999992 14.3265999999999991
 -3.2100000000000000  9.2664700000000000 11.7187000000000001
 -4.7992800000000004 10.1857000000000006 19.5504999999999995
 -3.2100000000000000  9.2664700000000000 16.9242999999999988
  3.2035500000000008  1.7742000000000000  3.7795299999999998
  4.8300800000000006  0.9074759999999999  1.2761700000000000
  3.2235500000000008  1.5686400000000000  9.0101499999999994
  4.8109200000000012  1.0028699999999999  6.4513299999999996
  3.1917200000000010  1.7024800000000000 14.5164000000000009
  4.8369400000000011  0.9077950000000000 11.7180000000000000
  3.2135800000000012  1.8069900000000001 19.5797999999999988
  4.8343500000000006  0.8937360000000000 16.9967000000000006
  1.5142700000000009  4.6853699999999998  3.7153000000000000
  3.1894200000000010  3.6768000000000001  1.2461000000000000
  2.9375400000000012  3.6371199999999999  6.0836100000000002
  1.6810700000000010  4.3625400000000001 14.7563999999999993
  1.5895000000000010  4.6005200000000004 19.5939000000000014
  3.3005200000000010  3.6540800000000000 17.1247000000000007
 -0.0652695999999990  7.4583100000000000  3.7795299999999998
  1.5895000000000010  6.5192399999999999  1.2461000000000000
 -0.2532919999999990  7.5437700000000003  9.0101499999999994
  1.6810700000000010  6.7572200000000002  6.0836100000000002
 -0.1214679999999990  7.5044100000000000 14.5164000000000009
 -0.0418879999999990  7.4332200000000004 19.5797999999999988
  1.5142700000000009  6.4343899999999996 17.1247000000000007
 -1.6177699999999990 10.2027999999999999  3.8967299999999998
 -0.0158462999999990  9.2935599999999994  1.2728800000000000
 -1.5813999999999990 10.1889000000000003  9.1256900000000005
 -0.0279044999999990  9.3295800000000000  6.4665699999999999
 -1.6066599999999991 10.2039000000000009 14.3265999999999991
  0.0606548000000010  9.1734799999999996 11.7559000000000005
 -1.6192799999999989 10.1831999999999994 19.5504999999999995
  0.0099327800000010  9.2906700000000004 17.0023000000000017
  6.4388300000000021  1.8200799999999999  3.8432599999999999
  8.0407200000000021  0.9340570000000000  1.2894699999999999
  6.4253600000000022  1.8248700000000000  9.1219699999999992
  8.0165300000000013  0.9334570000000000  6.5134499999999997
  6.3560300000000014  1.8949400000000001 14.3887000000000000
  8.0168500000000016  0.9041060000000000 11.7142999999999997
  6.4290600000000024  1.8306500000000001 19.5638000000000005
  8.0230200000000025  0.9425310000000000 16.9433000000000007
  4.8152100000000022  4.5285900000000003  3.7153000000000000
  6.4583100000000018  3.6803400000000002  1.2602100000000001
  6.5597500000000020  3.6470099999999999  6.3235799999999998
  5.0113900000000013  4.8344600000000000 14.7563999999999993
  6.6597400000000020  3.5525300000000000 11.8299000000000003
  4.8510800000000014  4.6361600000000003 19.5939000000000014
  6.4917200000000017  3.6726299999999998 17.0605000000000011
  3.3005200000000019  7.4656799999999999  3.7153000000000000
  4.8510800000000014  6.4836000000000000  1.2461000000000000
  5.0113900000000013  6.2853000000000003  6.0836100000000002
  2.9375400000000012  7.4826400000000000 14.7563999999999993
  3.1894200000000019  7.4429600000000002 19.5939000000000014
  4.8152100000000022  6.5911700000000000 17.1247000000000007
  1.5790700000000020 10.1966000000000001  3.8376999999999999
  3.2135800000000021  9.3127700000000004  1.2602100000000001
  1.6552100000000021 10.0940999999999992  9.0840800000000002
  3.1917200000000019  9.4172799999999999  6.3235799999999998
  1.5643000000000020 10.2487999999999992 14.3734000000000002
  3.2235500000000021  9.5511199999999992 11.8299000000000003
  1.5894600000000021 10.2203999999999997 19.5670999999999999
  3.2035500000000021  9.3455600000000008 17.0605000000000011
  9.6300000000000026  1.8532900000000001  3.9156700000000000
 11.2207000000000026  0.9365490000000000  1.2894699999999999
  9.6300000000000026  1.8532900000000001  9.1213400000000000
 11.2333000000000016  0.9159050000000000  6.5134499999999997
  9.6300000000000026  1.8532900000000001 14.3110999999999997
 11.2586000000000013  0.9308540000000000 11.7142999999999997
  9.6300000000000026  1.8532900000000001 19.5308999999999990
 11.2222000000000026  0.9169900000000000 16.9433000000000007
  8.0410000000000021  4.6539400000000004  3.8376999999999999
  9.6285600000000020  3.6892700000000000  1.2894699999999999
  7.9141400000000024  4.6392699999999998  9.0840800000000002
  9.6401300000000010  3.7105100000000002  6.5134499999999997
  8.0936100000000017  4.6406200000000002 14.3734000000000002
  9.6145600000000027  3.7249200000000000 11.7142999999999997
  8.0563800000000025  4.6330600000000004 19.5670999999999999
  9.6447500000000019  3.7003599999999999 16.9433000000000007
  6.4917200000000026  7.4471299999999996  3.7795299999999998
  8.0563800000000025  6.4867100000000004  1.2728800000000000
  6.6597400000000029  7.5672400000000000  9.0101499999999994
  8.0936100000000017  6.4791400000000001  6.4665699999999999
  6.5597500000000029  7.4727499999999996 14.5164000000000009
  7.9141400000000024  6.4805000000000001 11.7559000000000005
  6.4583100000000027  7.4394299999999998 19.5797999999999988
  8.0410000000000021  6.4658199999999999 17.0023000000000017
  4.8343500000000006 10.2260000000000009  3.8432599999999999
  6.4290600000000024  9.2891200000000005  1.2761700000000000
  4.8369400000000020 10.2119999999999997  9.1219699999999992
  6.3560300000000023  9.2248199999999994  6.4513299999999996
  4.8109200000000021 10.1168999999999993 14.3887000000000000
  6.4253600000000031  9.2948900000000005 11.7180000000000000
  4.8300800000000006 10.2123000000000008 19.5638000000000005
  6.4388300000000029  9.2996800000000004 16.9967000000000006

