Fe100
1.0
5.740000 0.000000 0.000000
0.000000 14.350000 0.000000
0.000000 0.000000 14.350000
Fe
100
direct
0.000000 0.000000 0.000000 Fe
0.000000 0.000000 0.200000 Fe
0.000000 0.000000 0.400000 Fe
0.000000 0.000000 0.600000 Fe
0.000000 0.000000 0.800000 Fe
0.000000 0.200000 0.000000 Fe
0.000000 0.200000 0.200000 Fe
0.000000 0.200000 0.400000 Fe
0.000000 0.200000 0.600000 Fe
0.000000 0.200000 0.800000 Fe
0.000000 0.400000 0.000000 Fe
0.000000 0.400000 0.200000 Fe
0.000000 0.400000 0.400000 Fe
0.000000 0.400000 0.600000 Fe
0.000000 0.400000 0.800000 Fe
0.000000 0.600000 0.000000 Fe
0.000000 0.600000 0.200000 Fe
0.000000 0.600000 0.400000 Fe
0.000000 0.600000 0.600000 Fe
0.000000 0.600000 0.800000 Fe
0.000000 0.800000 0.000000 Fe
0.000000 0.800000 0.200000 Fe
0.000000 0.800000 0.400000 Fe
0.000000 0.800000 0.600000 Fe
0.000000 0.800000 0.800000 Fe
0.500000 0.000000 0.000000 Fe
0.500000 0.000000 0.200000 Fe
0.500000 0.000000 0.400000 Fe
0.500000 0.000000 0.600000 Fe
0.500000 0.000000 0.800000 Fe
0.500000 0.200000 0.000000 Fe
0.500000 0.200000 0.200000 Fe
0.500000 0.200000 0.400000 Fe
0.500000 0.200000 0.600000 Fe
0.500000 0.200000 0.800000 Fe
0.500000 0.400000 0.000000 Fe
0.500000 0.400000 0.200000 Fe
0.500000 0.400000 0.400000 Fe
0.500000 0.400000 0.600000 Fe
0.500000 0.400000 0.800000 Fe
0.500000 0.600000 0.000000 Fe
0.500000 0.600000 0.200000 Fe
0.500000 0.600000 0.400000 Fe
0.500000 0.600000 0.600000 Fe
0.500000 0.600000 0.800000 Fe
0.500000 0.800000 0.000000 Fe
0.500000 0.800000 0.200000 Fe
0.500000 0.800000 0.400000 Fe
0.500000 0.800000 0.600000 Fe
0.500000 0.800000 0.800000 Fe
0.250000 0.100000 0.100000 Fe
0.250000 0.100000 0.300000 Fe
0.250000 0.100000 0.500000 Fe
0.250000 0.100000 0.700000 Fe
0.250000 0.100000 0.900000 Fe
0.250000 0.300000 0.100000 Fe
0.250000 0.300000 0.300000 Fe
0.250000 0.300000 0.500000 Fe
0.250000 0.300000 0.700000 Fe
0.250000 0.300000 0.900000 Fe
0.250000 0.500000 0.100000 Fe
0.250000 0.500000 0.300000 Fe
0.250000 0.500000 0.500000 Fe
0.250000 0.500000 0.700000 Fe
0.250000 0.500000 0.900000 Fe
0.250000 0.700000 0.100000 Fe
0.250000 0.700000 0.300000 Fe
0.250000 0.700000 0.500000 Fe
0.250000 0.700000 0.700000 Fe
0.250000 0.700000 0.900000 Fe
0.250000 0.900000 0.100000 Fe
0.250000 0.900000 0.300000 Fe
0.250000 0.900000 0.500000 Fe
0.250000 0.900000 0.700000 Fe
0.250000 0.900000 0.900000 Fe
0.750000 0.100000 0.100000 Fe
0.750000 0.100000 0.300000 Fe
0.750000 0.100000 0.500000 Fe
0.750000 0.100000 0.700000 Fe
0.750000 0.100000 0.900000 Fe
0.750000 0.300000 0.100000 Fe
0.750000 0.300000 0.300000 Fe
0.750000 0.300000 0.500000 Fe
0.750000 0.300000 0.700000 Fe
0.750000 0.300000 0.900000 Fe
0.750000 0.500000 0.100000 Fe
0.750000 0.500000 0.300000 Fe
0.750000 0.500000 0.500000 Fe
0.750000 0.500000 0.700000 Fe
0.750000 0.500000 0.900000 Fe
0.750000 0.700000 0.100000 Fe
0.750000 0.700000 0.300000 Fe
0.750000 0.700000 0.500000 Fe
0.750000 0.700000 0.700000 Fe
0.750000 0.700000 0.900000 Fe
0.750000 0.900000 0.100000 Fe
0.750000 0.900000 0.300000 Fe
0.750000 0.900000 0.500000 Fe
0.750000 0.900000 0.700000 Fe
0.750000 0.900000 0.900000 Fe
