Mg1027
1.0
25.680000 0.000000 0.000000
-12.840000 22.239532 0.000000
0.000000 0.000000 41.680000
Mg
1027
direct
0.174661 0.174661 0.250000 Mg
0.250000 0.325338 0.250000 Mg
0.325338 0.250000 0.250000 Mg
0.331939 0.314700 0.301032 Mg
0.185299 0.267238 0.301032 Mg
0.232761 0.168061 0.301032 Mg
0.267238 0.185299 0.198967 Mg
0.168061 0.232762 0.198967 Mg
0.314700 0.331939 0.198967 Mg
0.041509 0.082245 0.092075 Mg
0.082115 0.040440 0.030539 Mg
0.046119 0.087514 0.217948 Mg
0.080496 0.039161 0.155148 Mg
0.039161 0.080495 0.344851 Mg
0.087515 0.046119 0.282051 Mg
0.040440 0.082115 0.469460 Mg
0.082245 0.041509 0.407925 Mg
0.547709 0.208347 0.092209 Mg
0.081251 0.165765 0.030235 Mg
0.548338 0.208764 0.218857 Mg
0.076552 0.162564 0.151717 Mg
0.552615 0.209888 0.345218 Mg
0.070534 0.160794 0.283827 Mg
0.548326 0.208490 0.469381 Mg
0.079777 0.164637 0.409321 Mg
0.042381 0.333614 0.093492 Mg
0.082315 0.291510 0.030618 Mg
0.040653 0.332509 0.218946 Mg
0.085206 0.290112 0.154782 Mg
0.041973 0.333157 0.343728 Mg
0.082055 0.291236 0.281142 Mg
0.042000 0.334112 0.469062 Mg
0.081840 0.291653 0.407790 Mg
0.041232 0.457618 0.093492 Mg
0.083333 0.416667 0.031408 Mg
0.041857 0.459349 0.218946 Mg
0.083333 0.416667 0.156642 Mg
0.041184 0.458027 0.343728 Mg
0.083333 0.416667 0.281159 Mg
0.042112 0.458000 0.469062 Mg
0.083333 0.416667 0.406053 Mg
0.164637 0.079777 0.090680 Mg
0.208490 0.040805 0.030618 Mg
0.160795 0.070534 0.216174 Mg
0.209888 0.045094 0.154782 Mg
0.162564 0.076552 0.348282 Mg
0.208764 0.040819 0.281142 Mg
0.165765 0.081251 0.469765 Mg
0.208347 0.040187 0.407790 Mg
0.164306 0.210678 0.089139 Mg
0.206862 0.165327 0.029897 Mg
0.196162 0.163543 0.145960 Mg
0.163543 0.196161 0.354040 Mg
0.165328 0.206862 0.470103 Mg
0.210678 0.164306 0.410861 Mg
0.165140 0.335363 0.090680 Mg
0.208465 0.293137 0.029897 Mg
0.159739 0.339205 0.216174 Mg
0.217381 0.303838 0.145960 Mg
0.163988 0.337436 0.348282 Mg
0.165486 0.334235 0.469765 Mg
0.203628 0.289322 0.410861 Mg
0.166387 0.458769 0.093492 Mg
0.208325 0.417885 0.030539 Mg
0.167491 0.458144 0.218946 Mg
0.208666 0.419504 0.155148 Mg
0.166844 0.458818 0.343728 Mg
0.208605 0.412485 0.282051 Mg
0.165888 0.457887 0.469062 Mg
0.209264 0.417755 0.407925 Mg
0.291653 0.081840 0.092209 Mg
0.334112 0.042000 0.030937 Mg
0.291236 0.082055 0.218857 Mg
0.333157 0.041973 0.156273 Mg
0.290112 0.085206 0.345218 Mg
0.332509 0.040653 0.281053 Mg
0.291510 0.082315 0.469381 Mg
0.333613 0.042381 0.406509 Mg
0.289322 0.203628 0.089139 Mg
0.334235 0.165486 0.030235 Mg
0.337436 0.163988 0.151717 Mg
0.303838 0.217381 0.354040 Mg
0.339205 0.159739 0.283827 Mg
0.293137 0.208465 0.470103 Mg
0.335363 0.165140 0.409321 Mg
0.296372 0.335694 0.089139 Mg
0.334672 0.291535 0.029897 Mg
0.336457 0.282618 0.145960 Mg
0.282619 0.336457 0.354040 Mg
0.291535 0.334673 0.470103 Mg
0.335694 0.296372 0.410861 Mg
0.290735 0.458490 0.092075 Mg
0.334514 0.418748 0.030235 Mg
0.291396 0.453881 0.217948 Mg
0.336012 0.423448 0.151717 Mg
0.291334 0.460837 0.344851 Mg
0.340261 0.429466 0.283827 Mg
0.291675 0.459560 0.469460 Mg
0.334860 0.420223 0.409321 Mg
0.416667 0.083333 0.093946 Mg
0.457999 0.042112 0.030937 Mg
0.416667 0.083333 0.218842 Mg
0.458026 0.041184 0.156273 Mg
0.416667 0.083333 0.343357 Mg
0.459347 0.041856 0.281053 Mg
0.416667 0.083333 0.468592 Mg
0.457618 0.041232 0.406509 Mg
0.417755 0.209264 0.092075 Mg
0.457888 0.165888 0.030937 Mg
0.412485 0.208605 0.217948 Mg
0.458816 0.166843 0.156273 Mg
0.419504 0.208665 0.344851 Mg
0.458144 0.167491 0.281053 Mg
0.417885 0.208325 0.469460 Mg
0.458768 0.166387 0.406509 Mg
0.420223 0.334860 0.090680 Mg
0.459559 0.291675 0.030539 Mg
0.429466 0.340261 0.216174 Mg
0.460839 0.291334 0.155148 Mg
0.423448 0.336012 0.348282 Mg
0.453881 0.291396 0.282051 Mg
0.418749 0.334514 0.469765 Mg
0.458491 0.290735 0.407925 Mg
0.418159 0.459812 0.092209 Mg
0.459195 0.417685 0.030618 Mg
0.417946 0.459182 0.218857 Mg
0.454906 0.414794 0.154782 Mg
0.414794 0.454906 0.345218 Mg
0.459181 0.417944 0.281142 Mg
0.417685 0.459196 0.469381 Mg
0.459813 0.418160 0.407790 Mg
0.541667 0.083333 0.093750 Mg
0.583333 0.041667 0.031250 Mg
0.541667 0.083333 0.218750 Mg
0.583333 0.041667 0.156250 Mg
0.541667 0.083333 0.343750 Mg
0.583333 0.041667 0.281250 Mg
0.541667 0.083333 0.468750 Mg
0.583333 0.041667 0.406250 Mg
0.541667 0.083333 0.593750 Mg
0.583333 0.041667 0.531250 Mg
0.541667 0.083333 0.718750 Mg
0.583333 0.041667 0.656250 Mg
0.541667 0.083333 0.843750 Mg
0.583333 0.041667 0.781250 Mg
0.541667 0.083333 0.968750 Mg
0.583333 0.041667 0.906250 Mg
0.041667 0.208333 0.093750 Mg
0.583333 0.166667 0.031250 Mg
0.041667 0.208333 0.218750 Mg
0.583333 0.166667 0.156250 Mg
0.041667 0.208333 0.343750 Mg
0.583333 0.166667 0.281250 Mg
0.041667 0.208333 0.468750 Mg
0.583333 0.166667 0.406250 Mg
0.541667 0.208333 0.593750 Mg
0.583333 0.166667 0.531250 Mg
0.541667 0.208333 0.718750 Mg
0.583333 0.166667 0.656250 Mg
0.541667 0.208333 0.843750 Mg
0.583333 0.166667 0.781250 Mg
0.541667 0.208333 0.968750 Mg
0.583333 0.166667 0.906250 Mg
0.541667 0.333333 0.093750 Mg
0.583333 0.291667 0.031250 Mg
0.541667 0.333333 0.218750 Mg
0.583333 0.291667 0.156250 Mg
0.541667 0.333333 0.343750 Mg
0.583333 0.291667 0.281250 Mg
0.541667 0.333333 0.468750 Mg
0.583333 0.291667 0.406250 Mg
0.541667 0.333333 0.593750 Mg
0.583333 0.291667 0.531250 Mg
0.541667 0.333333 0.718750 Mg
0.583333 0.291667 0.656250 Mg
0.541667 0.333333 0.843750 Mg
0.583333 0.291667 0.781250 Mg
0.541667 0.333333 0.968750 Mg
0.583333 0.291667 0.906250 Mg
0.541667 0.458333 0.093750 Mg
0.583333 0.416667 0.031250 Mg
0.541667 0.458333 0.218750 Mg
0.583333 0.416667 0.156250 Mg
0.541667 0.458333 0.343750 Mg
0.583333 0.416667 0.281250 Mg
0.541667 0.458333 0.468750 Mg
0.583333 0.416667 0.406250 Mg
0.541667 0.458333 0.593750 Mg
0.583333 0.416667 0.531250 Mg
0.541667 0.458333 0.718750 Mg
0.583333 0.416667 0.656250 Mg
0.541667 0.458333 0.843750 Mg
0.583333 0.416667 0.781250 Mg
0.541667 0.458333 0.968750 Mg
0.583333 0.416667 0.906250 Mg
0.541667 0.583333 0.093750 Mg
0.583333 0.541667 0.031250 Mg
0.541667 0.583333 0.218750 Mg
0.583333 0.541667 0.156250 Mg
0.541667 0.583333 0.343750 Mg
0.583333 0.541667 0.281250 Mg
0.541667 0.583333 0.468750 Mg
0.583333 0.541667 0.406250 Mg
0.541667 0.583333 0.593750 Mg
0.583333 0.541667 0.531250 Mg
0.541667 0.583333 0.718750 Mg
0.583333 0.541667 0.656250 Mg
0.541667 0.583333 0.843750 Mg
0.583333 0.541667 0.781250 Mg
0.541667 0.583333 0.968750 Mg
0.583333 0.541667 0.906250 Mg
0.541667 0.708333 0.093750 Mg
0.583333 0.666667 0.031250 Mg
0.541667 0.708333 0.218750 Mg
0.583333 0.666667 0.156250 Mg
0.541667 0.708333 0.343750 Mg
0.583333 0.666667 0.281250 Mg
0.541667 0.708333 0.468750 Mg
0.583333 0.666667 0.406250 Mg
0.541667 0.708333 0.593750 Mg
0.583333 0.666667 0.531250 Mg
0.541667 0.708333 0.718750 Mg
0.583333 0.666667 0.656250 Mg
0.541667 0.708333 0.843750 Mg
0.583333 0.666667 0.781250 Mg
0.541667 0.708333 0.968750 Mg
0.583333 0.666667 0.906250 Mg
0.541667 0.833333 0.093750 Mg
0.583333 0.791667 0.031250 Mg
0.541667 0.833333 0.218750 Mg
0.583333 0.791667 0.156250 Mg
0.541667 0.833333 0.343750 Mg
0.583333 0.791667 0.281250 Mg
0.541667 0.833333 0.468750 Mg
0.583333 0.791667 0.406250 Mg
0.541667 0.833333 0.593750 Mg
0.583333 0.791667 0.531250 Mg
0.541667 0.833333 0.718750 Mg
0.583333 0.791667 0.656250 Mg
0.541667 0.833333 0.843750 Mg
0.583333 0.791667 0.781250 Mg
0.541667 0.833333 0.968750 Mg
0.583333 0.791667 0.906250 Mg
0.541667 0.958333 0.093750 Mg
0.583333 0.916667 0.031250 Mg
0.541667 0.958333 0.218750 Mg
0.583333 0.916667 0.156250 Mg
0.541667 0.958333 0.343750 Mg
0.583333 0.916667 0.281250 Mg
0.541667 0.958333 0.468750 Mg
0.583333 0.916667 0.406250 Mg
0.541667 0.958333 0.593750 Mg
0.583333 0.916667 0.531250 Mg
0.541667 0.958333 0.718750 Mg
0.583333 0.916667 0.656250 Mg
0.541667 0.958333 0.843750 Mg
0.583333 0.916667 0.781250 Mg
0.541667 0.958333 0.968750 Mg
0.583333 0.916667 0.906250 Mg
0.666667 0.083333 0.093750 Mg
0.708333 0.041667 0.031250 Mg
0.666667 0.083333 0.218750 Mg
0.708333 0.041667 0.156250 Mg
0.666667 0.083333 0.343750 Mg
0.708333 0.041667 0.281250 Mg
0.666667 0.083333 0.468750 Mg
0.708333 0.041667 0.406250 Mg
0.666667 0.083333 0.593750 Mg
0.708333 0.041667 0.531250 Mg
0.666667 0.083333 0.718750 Mg
0.708333 0.041667 0.656250 Mg
0.666667 0.083333 0.843750 Mg
0.708333 0.041667 0.781250 Mg
0.666667 0.083333 0.968750 Mg
0.708333 0.041667 0.906250 Mg
0.666667 0.208333 0.093750 Mg
0.708333 0.166667 0.031250 Mg
0.666667 0.208333 0.218750 Mg
0.708333 0.166667 0.156250 Mg
0.666667 0.208333 0.343750 Mg
0.708333 0.166667 0.281250 Mg
0.666667 0.208333 0.468750 Mg
0.708333 0.166667 0.406250 Mg
0.666667 0.208333 0.593750 Mg
0.708333 0.166667 0.531250 Mg
0.666667 0.208333 0.718750 Mg
0.708333 0.166667 0.656250 Mg
0.666667 0.208333 0.843750 Mg
0.708333 0.166667 0.781250 Mg
0.666667 0.208333 0.968750 Mg
0.708333 0.166667 0.906250 Mg
0.666667 0.333333 0.093750 Mg
0.708333 0.291667 0.031250 Mg
0.666667 0.333333 0.218750 Mg
0.708333 0.291667 0.156250 Mg
0.666667 0.333333 0.343750 Mg
0.708333 0.291667 0.281250 Mg
0.666667 0.333333 0.468750 Mg
0.708333 0.291667 0.406250 Mg
0.666667 0.333333 0.593750 Mg
0.708333 0.291667 0.531250 Mg
0.666667 0.333333 0.718750 Mg
0.708333 0.291667 0.656250 Mg
0.666667 0.333333 0.843750 Mg
0.708333 0.291667 0.781250 Mg
0.666667 0.333333 0.968750 Mg
0.708333 0.291667 0.906250 Mg
0.666667 0.458333 0.093750 Mg
0.708333 0.416667 0.031250 Mg
0.666667 0.458333 0.218750 Mg
0.708333 0.416667 0.156250 Mg
0.666667 0.458333 0.343750 Mg
0.708333 0.416667 0.281250 Mg
0.666667 0.458333 0.468750 Mg
0.708333 0.416667 0.406250 Mg
0.666667 0.458333 0.593750 Mg
0.708333 0.416667 0.531250 Mg
0.666667 0.458333 0.718750 Mg
0.708333 0.416667 0.656250 Mg
0.666667 0.458333 0.843750 Mg
0.708333 0.416667 0.781250 Mg
0.666667 0.458333 0.968750 Mg
0.708333 0.416667 0.906250 Mg
0.666667 0.583333 0.093750 Mg
0.708333 0.541667 0.031250 Mg
0.666667 0.583333 0.218750 Mg
0.708333 0.541667 0.156250 Mg
0.666667 0.583333 0.343750 Mg
0.708333 0.541667 0.281250 Mg
0.666667 0.583333 0.468750 Mg
0.708333 0.541667 0.406250 Mg
0.666667 0.583333 0.593750 Mg
0.708333 0.541667 0.531250 Mg
0.666667 0.583333 0.718750 Mg
0.708333 0.541667 0.656250 Mg
0.666667 0.583333 0.843750 Mg
0.708333 0.541667 0.781250 Mg
0.666667 0.583333 0.968750 Mg
0.708333 0.541667 0.906250 Mg
0.666667 0.708333 0.093750 Mg
0.708333 0.666667 0.031250 Mg
0.666667 0.708333 0.218750 Mg
0.708333 0.666667 0.156250 Mg
0.666667 0.708333 0.343750 Mg
0.708333 0.666667 0.281250 Mg
0.666667 0.708333 0.468750 Mg
0.708333 0.666667 0.406250 Mg
0.666667 0.708333 0.593750 Mg
0.708333 0.666667 0.531250 Mg
0.666667 0.708333 0.718750 Mg
0.708333 0.666667 0.656250 Mg
0.666667 0.708333 0.843750 Mg
0.708333 0.666667 0.781250 Mg
0.666667 0.708333 0.968750 Mg
0.708333 0.666667 0.906250 Mg
0.666667 0.833333 0.093750 Mg
0.708333 0.791667 0.031250 Mg
0.666667 0.833333 0.218750 Mg
0.708333 0.791667 0.156250 Mg
0.666667 0.833333 0.343750 Mg
0.708333 0.791667 0.281250 Mg
0.666667 0.833333 0.468750 Mg
0.708333 0.791667 0.406250 Mg
0.666667 0.833333 0.593750 Mg
0.708333 0.791667 0.531250 Mg
0.666667 0.833333 0.718750 Mg
0.708333 0.791667 0.656250 Mg
0.666667 0.833333 0.843750 Mg
0.708333 0.791667 0.781250 Mg
0.666667 0.833333 0.968750 Mg
0.708333 0.791667 0.906250 Mg
0.666667 0.958333 0.093750 Mg
0.708333 0.916667 0.031250 Mg
0.666667 0.958333 0.218750 Mg
0.708333 0.916667 0.156250 Mg
0.666667 0.958333 0.343750 Mg
0.708333 0.916667 0.281250 Mg
0.666667 0.958333 0.468750 Mg
0.708333 0.916667 0.406250 Mg
0.666667 0.958333 0.593750 Mg
0.708333 0.916667 0.531250 Mg
0.666667 0.958333 0.718750 Mg
0.708333 0.916667 0.656250 Mg
0.666667 0.958333 0.843750 Mg
0.708333 0.916667 0.781250 Mg
0.666667 0.958333 0.968750 Mg
0.708333 0.916667 0.906250 Mg
0.791667 0.083333 0.093750 Mg
0.833333 0.041667 0.031250 Mg
0.791667 0.083333 0.218750 Mg
0.833333 0.041667 0.156250 Mg
0.791667 0.083333 0.343750 Mg
0.833333 0.041667 0.281250 Mg
0.791667 0.083333 0.468750 Mg
0.833333 0.041667 0.406250 Mg
0.791667 0.083333 0.593750 Mg
0.833333 0.041667 0.531250 Mg
0.791667 0.083333 0.718750 Mg
0.833333 0.041667 0.656250 Mg
0.791667 0.083333 0.843750 Mg
0.833333 0.041667 0.781250 Mg
0.791667 0.083333 0.968750 Mg
0.833333 0.041667 0.906250 Mg
0.791667 0.208333 0.093750 Mg
0.833333 0.166667 0.031250 Mg
0.791667 0.208333 0.218750 Mg
0.833333 0.166667 0.156250 Mg
0.791667 0.208333 0.343750 Mg
0.833333 0.166667 0.281250 Mg
0.791667 0.208333 0.468750 Mg
0.833333 0.166667 0.406250 Mg
0.791667 0.208333 0.593750 Mg
0.833333 0.166667 0.531250 Mg
0.791667 0.208333 0.718750 Mg
0.833333 0.166667 0.656250 Mg
0.791667 0.208333 0.843750 Mg
0.833333 0.166667 0.781250 Mg
0.791667 0.208333 0.968750 Mg
0.833333 0.166667 0.906250 Mg
0.791667 0.333333 0.093750 Mg
0.833333 0.291667 0.031250 Mg
0.791667 0.333333 0.218750 Mg
0.833333 0.291667 0.156250 Mg
0.791667 0.333333 0.343750 Mg
0.833333 0.291667 0.281250 Mg
0.791667 0.333333 0.468750 Mg
0.833333 0.291667 0.406250 Mg
0.791667 0.333333 0.593750 Mg
0.833333 0.291667 0.531250 Mg
0.791667 0.333333 0.718750 Mg
0.833333 0.291667 0.656250 Mg
0.791667 0.333333 0.843750 Mg
0.833333 0.291667 0.781250 Mg
0.791667 0.333333 0.968750 Mg
0.833333 0.291667 0.906250 Mg
0.791667 0.458333 0.093750 Mg
0.833333 0.416667 0.031250 Mg
0.791667 0.458333 0.218750 Mg
0.833333 0.416667 0.156250 Mg
0.791667 0.458333 0.343750 Mg
0.833333 0.416667 0.281250 Mg
0.791667 0.458333 0.468750 Mg
0.833333 0.416667 0.406250 Mg
0.791667 0.458333 0.593750 Mg
0.833333 0.416667 0.531250 Mg
0.791667 0.458333 0.718750 Mg
0.833333 0.416667 0.656250 Mg
0.791667 0.458333 0.843750 Mg
0.833333 0.416667 0.781250 Mg
0.791667 0.458333 0.968750 Mg
0.833333 0.416667 0.906250 Mg
0.791667 0.583333 0.093750 Mg
0.833333 0.541667 0.031250 Mg
0.791667 0.583333 0.218750 Mg
0.833333 0.541667 0.156250 Mg
0.791667 0.583333 0.343750 Mg
0.833333 0.541667 0.281250 Mg
0.791667 0.583333 0.468750 Mg
0.833333 0.541667 0.406250 Mg
0.791667 0.583333 0.593750 Mg
0.833333 0.541667 0.531250 Mg
0.791667 0.583333 0.718750 Mg
0.833333 0.541667 0.656250 Mg
0.791667 0.583333 0.843750 Mg
0.833333 0.541667 0.781250 Mg
0.791667 0.583333 0.968750 Mg
0.833333 0.541667 0.906250 Mg
0.791667 0.708333 0.093750 Mg
0.833333 0.666667 0.031250 Mg
0.791667 0.708333 0.218750 Mg
0.833333 0.666667 0.156250 Mg
0.791667 0.708333 0.343750 Mg
0.833333 0.666667 0.281250 Mg
0.791667 0.708333 0.468750 Mg
0.833333 0.666667 0.406250 Mg
0.791667 0.708333 0.593750 Mg
0.833333 0.666667 0.531250 Mg
0.791667 0.708333 0.718750 Mg
0.833333 0.666667 0.656250 Mg
0.791667 0.708333 0.843750 Mg
0.833333 0.666667 0.781250 Mg
0.791667 0.708333 0.968750 Mg
0.833333 0.666667 0.906250 Mg
0.791667 0.833333 0.093750 Mg
0.833333 0.791667 0.031250 Mg
0.791667 0.833333 0.218750 Mg
0.833333 0.791667 0.156250 Mg
0.791667 0.833333 0.343750 Mg
0.833333 0.791667 0.281250 Mg
0.791667 0.833333 0.468750 Mg
0.833333 0.791667 0.406250 Mg
0.791667 0.833333 0.593750 Mg
0.833333 0.791667 0.531250 Mg
0.791667 0.833333 0.718750 Mg
0.833333 0.791667 0.656250 Mg
0.791667 0.833333 0.843750 Mg
0.833333 0.791667 0.781250 Mg
0.791667 0.833333 0.968750 Mg
0.833333 0.791667 0.906250 Mg
0.791667 0.958333 0.093750 Mg
0.833333 0.916667 0.031250 Mg
0.791667 0.958333 0.218750 Mg
0.833333 0.916667 0.156250 Mg
0.791667 0.958333 0.343750 Mg
0.833333 0.916667 0.281250 Mg
0.791667 0.958333 0.468750 Mg
0.833333 0.916667 0.406250 Mg
0.791667 0.958333 0.593750 Mg
0.833333 0.916667 0.531250 Mg
0.791667 0.958333 0.718750 Mg
0.833333 0.916667 0.656250 Mg
0.791667 0.958333 0.843750 Mg
0.833333 0.916667 0.781250 Mg
0.791667 0.958333 0.968750 Mg
0.833333 0.916667 0.906250 Mg
0.916667 0.083333 0.093750 Mg
0.958333 0.041667 0.031250 Mg
0.916667 0.083333 0.218750 Mg
0.958333 0.041667 0.156250 Mg
0.916667 0.083333 0.343750 Mg
0.958333 0.041667 0.281250 Mg
0.916667 0.083333 0.468750 Mg
0.958333 0.041667 0.406250 Mg
0.916667 0.083333 0.593750 Mg
0.958333 0.041667 0.531250 Mg
0.916667 0.083333 0.718750 Mg
0.958333 0.041667 0.656250 Mg
0.916667 0.083333 0.843750 Mg
0.958333 0.041667 0.781250 Mg
0.916667 0.083333 0.968750 Mg
0.958333 0.041667 0.906250 Mg
0.916667 0.208333 0.093750 Mg
0.958333 0.166667 0.031250 Mg
0.916667 0.208333 0.218750 Mg
0.958333 0.166667 0.156250 Mg
0.916667 0.208333 0.343750 Mg
0.958333 0.166667 0.281250 Mg
0.916667 0.208333 0.468750 Mg
0.958333 0.166667 0.406250 Mg
0.916667 0.208333 0.593750 Mg
0.958333 0.166667 0.531250 Mg
0.916667 0.208333 0.718750 Mg
0.958333 0.166667 0.656250 Mg
0.916667 0.208333 0.843750 Mg
0.958333 0.166667 0.781250 Mg
0.916667 0.208333 0.968750 Mg
0.958333 0.166667 0.906250 Mg
0.916667 0.333333 0.093750 Mg
0.958333 0.291667 0.031250 Mg
0.916667 0.333333 0.218750 Mg
0.958333 0.291667 0.156250 Mg
0.916667 0.333333 0.343750 Mg
0.958333 0.291667 0.281250 Mg
0.916667 0.333333 0.468750 Mg
0.958333 0.291667 0.406250 Mg
0.916667 0.333333 0.593750 Mg
0.958333 0.291667 0.531250 Mg
0.916667 0.333333 0.718750 Mg
0.958333 0.291667 0.656250 Mg
0.916667 0.333333 0.843750 Mg
0.958333 0.291667 0.781250 Mg
0.916667 0.333333 0.968750 Mg
0.958333 0.291667 0.906250 Mg
0.916667 0.458333 0.093750 Mg
0.958333 0.416667 0.031250 Mg
0.916667 0.458333 0.218750 Mg
0.958333 0.416667 0.156250 Mg
0.916667 0.458333 0.343750 Mg
0.958333 0.416667 0.281250 Mg
0.916667 0.458333 0.468750 Mg
0.958333 0.416667 0.406250 Mg
0.916667 0.458333 0.593750 Mg
0.958333 0.416667 0.531250 Mg
0.916667 0.458333 0.718750 Mg
0.958333 0.416667 0.656250 Mg
0.916667 0.458333 0.843750 Mg
0.958333 0.416667 0.781250 Mg
0.916667 0.458333 0.968750 Mg
0.958333 0.416667 0.906250 Mg
0.916667 0.583333 0.093750 Mg
0.958333 0.541667 0.031250 Mg
0.916667 0.583333 0.218750 Mg
0.958333 0.541667 0.156250 Mg
0.916667 0.583333 0.343750 Mg
0.958333 0.541667 0.281250 Mg
0.916667 0.583333 0.468750 Mg
0.958333 0.541667 0.406250 Mg
0.916667 0.583333 0.593750 Mg
0.958333 0.541667 0.531250 Mg
0.916667 0.583333 0.718750 Mg
0.958333 0.541667 0.656250 Mg
0.916667 0.583333 0.843750 Mg
0.958333 0.541667 0.781250 Mg
0.916667 0.583333 0.968750 Mg
0.958333 0.541667 0.906250 Mg
0.916667 0.708333 0.093750 Mg
0.958333 0.666667 0.031250 Mg
0.916667 0.708333 0.218750 Mg
0.958333 0.666667 0.156250 Mg
0.916667 0.708333 0.343750 Mg
0.958333 0.666667 0.281250 Mg
0.916667 0.708333 0.468750 Mg
0.958333 0.666667 0.406250 Mg
0.916667 0.708333 0.593750 Mg
0.958333 0.666667 0.531250 Mg
0.916667 0.708333 0.718750 Mg
0.958333 0.666667 0.656250 Mg
0.916667 0.708333 0.843750 Mg
0.958333 0.666667 0.781250 Mg
0.916667 0.708333 0.968750 Mg
0.958333 0.666667 0.906250 Mg
0.916667 0.833333 0.093750 Mg
0.958333 0.791667 0.031250 Mg
0.916667 0.833333 0.218750 Mg
0.958333 0.791667 0.156250 Mg
0.916667 0.833333 0.343750 Mg
0.958333 0.791667 0.281250 Mg
0.916667 0.833333 0.468750 Mg
0.958333 0.791667 0.406250 Mg
0.916667 0.833333 0.593750 Mg
0.958333 0.791667 0.531250 Mg
0.916667 0.833333 0.718750 Mg
0.958333 0.791667 0.656250 Mg
0.916667 0.833333 0.843750 Mg
0.958333 0.791667 0.781250 Mg
0.916667 0.833333 0.968750 Mg
0.958333 0.791667 0.906250 Mg
0.916667 0.958333 0.093750 Mg
0.958333 0.916667 0.031250 Mg
0.916667 0.958333 0.218750 Mg
0.958333 0.916667 0.156250 Mg
0.916667 0.958333 0.343750 Mg
0.958333 0.916667 0.281250 Mg
0.916667 0.958333 0.468750 Mg
0.958333 0.916667 0.406250 Mg
0.916667 0.958333 0.593750 Mg
0.958333 0.916667 0.531250 Mg
0.916667 0.958333 0.718750 Mg
0.958333 0.916667 0.656250 Mg
0.916667 0.958333 0.843750 Mg
0.958333 0.916667 0.781250 Mg
0.916667 0.958333 0.968750 Mg
0.958333 0.916667 0.906250 Mg
0.041667 0.583333 0.093750 Mg
0.083333 0.541667 0.031250 Mg
0.041667 0.583333 0.218750 Mg
0.083333 0.541667 0.156250 Mg
0.041667 0.583333 0.343750 Mg
0.083333 0.541667 0.281250 Mg
0.041667 0.583333 0.468750 Mg
0.083333 0.541667 0.406250 Mg
0.041667 0.583333 0.593750 Mg
0.083333 0.541667 0.531250 Mg
0.041667 0.583333 0.718750 Mg
0.083333 0.541667 0.656250 Mg
0.041667 0.583333 0.843750 Mg
0.083333 0.541667 0.781250 Mg
0.041667 0.583333 0.968750 Mg
0.083333 0.541667 0.906250 Mg
0.166667 0.583333 0.093750 Mg
0.208333 0.541667 0.031250 Mg
0.166667 0.583333 0.218750 Mg
0.208333 0.541667 0.156250 Mg
0.166667 0.583333 0.343750 Mg
0.208333 0.541667 0.281250 Mg
0.166667 0.583333 0.468750 Mg
0.208333 0.541667 0.406250 Mg
0.166667 0.583333 0.593750 Mg
0.208333 0.541667 0.531250 Mg
0.166667 0.583333 0.718750 Mg
0.208333 0.541667 0.656250 Mg
0.166667 0.583333 0.843750 Mg
0.208333 0.541667 0.781250 Mg
0.166667 0.583333 0.968750 Mg
0.208333 0.541667 0.906250 Mg
0.291667 0.583333 0.093750 Mg
0.333333 0.541667 0.031250 Mg
0.291667 0.583333 0.218750 Mg
0.333333 0.541667 0.156250 Mg
0.291667 0.583333 0.343750 Mg
0.333333 0.541667 0.281250 Mg
0.291667 0.583333 0.468750 Mg
0.333333 0.541667 0.406250 Mg
0.291667 0.583333 0.593750 Mg
0.333333 0.541667 0.531250 Mg
0.291667 0.583333 0.718750 Mg
0.333333 0.541667 0.656250 Mg
0.291667 0.583333 0.843750 Mg
0.333333 0.541667 0.781250 Mg
0.291667 0.583333 0.968750 Mg
0.333333 0.541667 0.906250 Mg
0.416667 0.583333 0.093750 Mg
0.458333 0.541667 0.031250 Mg
0.416667 0.583333 0.218750 Mg
0.458333 0.541667 0.156250 Mg
0.416667 0.583333 0.343750 Mg
0.458333 0.541667 0.281250 Mg
0.416667 0.583333 0.468750 Mg
0.458333 0.541667 0.406250 Mg
0.416667 0.583333 0.593750 Mg
0.458333 0.541667 0.531250 Mg
0.416667 0.583333 0.718750 Mg
0.458333 0.541667 0.656250 Mg
0.416667 0.583333 0.843750 Mg
0.458333 0.541667 0.781250 Mg
0.416667 0.583333 0.968750 Mg
0.458333 0.541667 0.906250 Mg
0.041667 0.708333 0.093750 Mg
0.083333 0.666667 0.031250 Mg
0.041667 0.708333 0.218750 Mg
0.083333 0.666667 0.156250 Mg
0.041667 0.708333 0.343750 Mg
0.083333 0.666667 0.281250 Mg
0.041667 0.708333 0.468750 Mg
0.083333 0.666667 0.406250 Mg
0.041667 0.708333 0.593750 Mg
0.083333 0.666667 0.531250 Mg
0.041667 0.708333 0.718750 Mg
0.083333 0.666667 0.656250 Mg
0.041667 0.708333 0.843750 Mg
0.083333 0.666667 0.781250 Mg
0.041667 0.708333 0.968750 Mg
0.083333 0.666667 0.906250 Mg
0.166667 0.708333 0.093750 Mg
0.208333 0.666667 0.031250 Mg
0.166667 0.708333 0.218750 Mg
0.208333 0.666667 0.156250 Mg
0.166667 0.708333 0.343750 Mg
0.208333 0.666667 0.281250 Mg
0.166667 0.708333 0.468750 Mg
0.208333 0.666667 0.406250 Mg
0.166667 0.708333 0.593750 Mg
0.208333 0.666667 0.531250 Mg
0.166667 0.708333 0.718750 Mg
0.208333 0.666667 0.656250 Mg
0.166667 0.708333 0.843750 Mg
0.208333 0.666667 0.781250 Mg
0.166667 0.708333 0.968750 Mg
0.208333 0.666667 0.906250 Mg
0.291667 0.708333 0.093750 Mg
0.333333 0.666667 0.031250 Mg
0.291667 0.708333 0.218750 Mg
0.333333 0.666667 0.156250 Mg
0.291667 0.708333 0.343750 Mg
0.333333 0.666667 0.281250 Mg
0.291667 0.708333 0.468750 Mg
0.333333 0.666667 0.406250 Mg
0.291667 0.708333 0.593750 Mg
0.333333 0.666667 0.531250 Mg
0.291667 0.708333 0.718750 Mg
0.333333 0.666667 0.656250 Mg
0.291667 0.708333 0.843750 Mg
0.333333 0.666667 0.781250 Mg
0.291667 0.708333 0.968750 Mg
0.333333 0.666667 0.906250 Mg
0.416667 0.708333 0.093750 Mg
0.458333 0.666667 0.031250 Mg
0.416667 0.708333 0.218750 Mg
0.458333 0.666667 0.156250 Mg
0.416667 0.708333 0.343750 Mg
0.458333 0.666667 0.281250 Mg
0.416667 0.708333 0.468750 Mg
0.458333 0.666667 0.406250 Mg
0.416667 0.708333 0.593750 Mg
0.458333 0.666667 0.531250 Mg
0.416667 0.708333 0.718750 Mg
0.458333 0.666667 0.656250 Mg
0.416667 0.708333 0.843750 Mg
0.458333 0.666667 0.781250 Mg
0.416667 0.708333 0.968750 Mg
0.458333 0.666667 0.906250 Mg
0.041667 0.833333 0.093750 Mg
0.083333 0.791667 0.031250 Mg
0.041667 0.833333 0.218750 Mg
0.083333 0.791667 0.156250 Mg
0.041667 0.833333 0.343750 Mg
0.083333 0.791667 0.281250 Mg
0.041667 0.833333 0.468750 Mg
0.083333 0.791667 0.406250 Mg
0.041667 0.833333 0.593750 Mg
0.083333 0.791667 0.531250 Mg
0.041667 0.833333 0.718750 Mg
0.083333 0.791667 0.656250 Mg
0.041667 0.833333 0.843750 Mg
0.083333 0.791667 0.781250 Mg
0.041667 0.833333 0.968750 Mg
0.083333 0.791667 0.906250 Mg
0.166667 0.833333 0.093750 Mg
0.208333 0.791667 0.031250 Mg
0.166667 0.833333 0.218750 Mg
0.208333 0.791667 0.156250 Mg
0.166667 0.833333 0.343750 Mg
0.208333 0.791667 0.281250 Mg
0.166667 0.833333 0.468750 Mg
0.208333 0.791667 0.406250 Mg
0.166667 0.833333 0.593750 Mg
0.208333 0.791667 0.531250 Mg
0.166667 0.833333 0.718750 Mg
0.208333 0.791667 0.656250 Mg
0.166667 0.833333 0.843750 Mg
0.208333 0.791667 0.781250 Mg
0.166667 0.833333 0.968750 Mg
0.208333 0.791667 0.906250 Mg
0.291667 0.833333 0.093750 Mg
0.333333 0.791667 0.031250 Mg
0.291667 0.833333 0.218750 Mg
0.333333 0.791667 0.156250 Mg
0.291667 0.833333 0.343750 Mg
0.333333 0.791667 0.281250 Mg
0.291667 0.833333 0.468750 Mg
0.333333 0.791667 0.406250 Mg
0.291667 0.833333 0.593750 Mg
0.333333 0.791667 0.531250 Mg
0.291667 0.833333 0.718750 Mg
0.333333 0.791667 0.656250 Mg
0.291667 0.833333 0.843750 Mg
0.333333 0.791667 0.781250 Mg
0.291667 0.833333 0.968750 Mg
0.333333 0.791667 0.906250 Mg
0.416667 0.833333 0.093750 Mg
0.458333 0.791667 0.031250 Mg
0.416667 0.833333 0.218750 Mg
0.458333 0.791667 0.156250 Mg
0.416667 0.833333 0.343750 Mg
0.458333 0.791667 0.281250 Mg
0.416667 0.833333 0.468750 Mg
0.458333 0.791667 0.406250 Mg
0.416667 0.833333 0.593750 Mg
0.458333 0.791667 0.531250 Mg
0.416667 0.833333 0.718750 Mg
0.458333 0.791667 0.656250 Mg
0.416667 0.833333 0.843750 Mg
0.458333 0.791667 0.781250 Mg
0.416667 0.833333 0.968750 Mg
0.458333 0.791667 0.906250 Mg
0.041667 0.958333 0.093750 Mg
0.083333 0.916667 0.031250 Mg
0.041667 0.958333 0.218750 Mg
0.083333 0.916667 0.156250 Mg
0.041667 0.958333 0.343750 Mg
0.083333 0.916667 0.281250 Mg
0.041667 0.958333 0.468750 Mg
0.083333 0.916667 0.406250 Mg
0.041667 0.958333 0.593750 Mg
0.083333 0.916667 0.531250 Mg
0.041667 0.958333 0.718750 Mg
0.083333 0.916667 0.656250 Mg
0.041667 0.958333 0.843750 Mg
0.083333 0.916667 0.781250 Mg
0.041667 0.958333 0.968750 Mg
0.083333 0.916667 0.906250 Mg
0.166667 0.958333 0.093750 Mg
0.208333 0.916667 0.031250 Mg
0.166667 0.958333 0.218750 Mg
0.208333 0.916667 0.156250 Mg
0.166667 0.958333 0.343750 Mg
0.208333 0.916667 0.281250 Mg
0.166667 0.958333 0.468750 Mg
0.208333 0.916667 0.406250 Mg
0.166667 0.958333 0.593750 Mg
0.208333 0.916667 0.531250 Mg
0.166667 0.958333 0.718750 Mg
0.208333 0.916667 0.656250 Mg
0.166667 0.958333 0.843750 Mg
0.208333 0.916667 0.781250 Mg
0.166667 0.958333 0.968750 Mg
0.208333 0.916667 0.906250 Mg
0.291667 0.958333 0.093750 Mg
0.333333 0.916667 0.031250 Mg
0.291667 0.958333 0.218750 Mg
0.333333 0.916667 0.156250 Mg
0.291667 0.958333 0.343750 Mg
0.333333 0.916667 0.281250 Mg
0.291667 0.958333 0.468750 Mg
0.333333 0.916667 0.406250 Mg
0.291667 0.958333 0.593750 Mg
0.333333 0.916667 0.531250 Mg
0.291667 0.958333 0.718750 Mg
0.333333 0.916667 0.656250 Mg
0.291667 0.958333 0.843750 Mg
0.333333 0.916667 0.781250 Mg
0.291667 0.958333 0.968750 Mg
0.333333 0.916667 0.906250 Mg
0.416667 0.958333 0.093750 Mg
0.458333 0.916667 0.031250 Mg
0.416667 0.958333 0.218750 Mg
0.458333 0.916667 0.156250 Mg
0.416667 0.958333 0.343750 Mg
0.458333 0.916667 0.281250 Mg
0.416667 0.958333 0.468750 Mg
0.458333 0.916667 0.406250 Mg
0.416667 0.958333 0.593750 Mg
0.458333 0.916667 0.531250 Mg
0.416667 0.958333 0.718750 Mg
0.458333 0.916667 0.656250 Mg
0.416667 0.958333 0.843750 Mg
0.458333 0.916667 0.781250 Mg
0.416667 0.958333 0.968750 Mg
0.458333 0.916667 0.906250 Mg
0.041667 0.083333 0.593750 Mg
0.083333 0.041667 0.531250 Mg
0.041667 0.208333 0.593750 Mg
0.083333 0.166667 0.531250 Mg
0.041667 0.333333 0.593750 Mg
0.083333 0.291667 0.531250 Mg
0.041667 0.458333 0.593750 Mg
0.083333 0.416667 0.531250 Mg
0.166667 0.083333 0.593750 Mg
0.208333 0.041667 0.531250 Mg
0.166667 0.208333 0.593750 Mg
0.208333 0.166667 0.531250 Mg
0.166667 0.333333 0.593750 Mg
0.208333 0.291667 0.531250 Mg
0.166667 0.458333 0.593750 Mg
0.208333 0.416667 0.531250 Mg
0.291667 0.083333 0.593750 Mg
0.333333 0.041667 0.531250 Mg
0.291667 0.208333 0.593750 Mg
0.333333 0.166667 0.531250 Mg
0.291667 0.333333 0.593750 Mg
0.333333 0.291667 0.531250 Mg
0.291667 0.458333 0.593750 Mg
0.333333 0.416667 0.531250 Mg
0.416667 0.083333 0.593750 Mg
0.458333 0.041667 0.531250 Mg
0.416667 0.208333 0.593750 Mg
0.458333 0.166667 0.531250 Mg
0.416667 0.333333 0.593750 Mg
0.458333 0.291667 0.531250 Mg
0.416667 0.458333 0.593750 Mg
0.458333 0.416667 0.531250 Mg
0.041667 0.083333 0.718750 Mg
0.083333 0.041667 0.656250 Mg
0.041667 0.208333 0.718750 Mg
0.083333 0.166667 0.656250 Mg
0.041667 0.333333 0.718750 Mg
0.083333 0.291667 0.656250 Mg
0.041667 0.458333 0.718750 Mg
0.083333 0.416667 0.656250 Mg
0.166667 0.083333 0.718750 Mg
0.208333 0.041667 0.656250 Mg
0.166667 0.208333 0.718750 Mg
0.208333 0.166667 0.656250 Mg
0.166667 0.333333 0.718750 Mg
0.208333 0.291667 0.656250 Mg
0.166667 0.458333 0.718750 Mg
0.208333 0.416667 0.656250 Mg
0.291667 0.083333 0.718750 Mg
0.333333 0.041667 0.656250 Mg
0.291667 0.208333 0.718750 Mg
0.333333 0.166667 0.656250 Mg
0.291667 0.333333 0.718750 Mg
0.333333 0.291667 0.656250 Mg
0.291667 0.458333 0.718750 Mg
0.333333 0.416667 0.656250 Mg
0.416667 0.083333 0.718750 Mg
0.458333 0.041667 0.656250 Mg
0.416667 0.208333 0.718750 Mg
0.458333 0.166667 0.656250 Mg
0.416667 0.333333 0.718750 Mg
0.458333 0.291667 0.656250 Mg
0.416667 0.458333 0.718750 Mg
0.458333 0.416667 0.656250 Mg
0.041667 0.083333 0.843750 Mg
0.083333 0.041667 0.781250 Mg
0.041667 0.208333 0.843750 Mg
0.083333 0.166667 0.781250 Mg
0.041667 0.333333 0.843750 Mg
0.083333 0.291667 0.781250 Mg
0.041667 0.458333 0.843750 Mg
0.083333 0.416667 0.781250 Mg
0.166667 0.083333 0.843750 Mg
0.208333 0.041667 0.781250 Mg
0.166667 0.208333 0.843750 Mg
0.208333 0.166667 0.781250 Mg
0.166667 0.333333 0.843750 Mg
0.208333 0.291667 0.781250 Mg
0.166667 0.458333 0.843750 Mg
0.208333 0.416667 0.781250 Mg
0.291667 0.083333 0.843750 Mg
0.333333 0.041667 0.781250 Mg
0.291667 0.208333 0.843750 Mg
0.333333 0.166667 0.781250 Mg
0.291667 0.333333 0.843750 Mg
0.333333 0.291667 0.781250 Mg
0.291667 0.458333 0.843750 Mg
0.333333 0.416667 0.781250 Mg
0.416667 0.083333 0.843750 Mg
0.458333 0.041667 0.781250 Mg
0.416667 0.208333 0.843750 Mg
0.458333 0.166667 0.781250 Mg
0.416667 0.333333 0.843750 Mg
0.458333 0.291667 0.781250 Mg
0.416667 0.458333 0.843750 Mg
0.458333 0.416667 0.781250 Mg
0.041667 0.083333 0.968750 Mg