Mg2
1.0
3.210000 0.000000 0.000000
-1.605000 2.779942 0.000000
0.000000 0.000000 5.210000
Mg
2
direct
0.333333 0.666667 0.750000 Mg
0.666667 0.333333 0.250000 Mg
