Fe1024
1.0
22.960000 0.000000 0.000000
0.000000 22.960000 0.000000
0.000000 0.000000 22.960000
Fe
1024
direct
0.000000 0.000000 0.000000 Fe
0.000000 0.000000 0.125000 Fe
0.000000 0.000000 0.250000 Fe
0.000000 0.000000 0.375000 Fe
0.000000 0.000000 0.500000 Fe
0.000000 0.000000 0.625000 Fe
0.000000 0.000000 0.750000 Fe
0.000000 0.000000 0.875000 Fe
0.000000 0.125000 0.000000 Fe
0.000000 0.125000 0.125000 Fe
0.000000 0.125000 0.250000 Fe
0.000000 0.125000 0.375000 Fe
0.000000 0.125000 0.500000 Fe
0.000000 0.125000 0.625000 Fe
0.000000 0.125000 0.750000 Fe
0.000000 0.125000 0.875000 Fe
0.000000 0.250000 0.000000 Fe
0.000000 0.250000 0.125000 Fe
0.000000 0.250000 0.250000 Fe
0.000000 0.250000 0.375000 Fe
0.000000 0.250000 0.500000 Fe
0.000000 0.250000 0.625000 Fe
0.000000 0.250000 0.750000 Fe
0.000000 0.250000 0.875000 Fe
0.000000 0.375000 0.000000 Fe
0.000000 0.375000 0.125000 Fe
0.000000 0.375000 0.250000 Fe
0.000000 0.375000 0.375000 Fe
0.000000 0.375000 0.500000 Fe
0.000000 0.375000 0.625000 Fe
0.000000 0.375000 0.750000 Fe
0.000000 0.375000 0.875000 Fe
0.000000 0.500000 0.000000 Fe
0.000000 0.500000 0.125000 Fe
0.000000 0.500000 0.250000 Fe
0.000000 0.500000 0.375000 Fe
0.000000 0.500000 0.500000 Fe
0.000000 0.500000 0.625000 Fe
0.000000 0.500000 0.750000 Fe
0.000000 0.500000 0.875000 Fe
0.000000 0.625000 0.000000 Fe
0.000000 0.625000 0.125000 Fe
0.000000 0.625000 0.250000 Fe
0.000000 0.625000 0.375000 Fe
0.000000 0.625000 0.500000 Fe
0.000000 0.625000 0.625000 Fe
0.000000 0.625000 0.750000 Fe
0.000000 0.625000 0.875000 Fe
0.000000 0.750000 0.000000 Fe
0.000000 0.750000 0.125000 Fe
0.000000 0.750000 0.250000 Fe
0.000000 0.750000 0.375000 Fe
0.000000 0.750000 0.500000 Fe
0.000000 0.750000 0.625000 Fe
0.000000 0.750000 0.750000 Fe
0.000000 0.750000 0.875000 Fe
0.000000 0.875000 0.000000 Fe
0.000000 0.875000 0.125000 Fe
0.000000 0.875000 0.250000 Fe
0.000000 0.875000 0.375000 Fe
0.000000 0.875000 0.500000 Fe
0.000000 0.875000 0.625000 Fe
0.000000 0.875000 0.750000 Fe
0.000000 0.875000 0.875000 Fe
0.125000 0.000000 0.000000 Fe
0.125000 0.000000 0.125000 Fe
0.125000 0.000000 0.250000 Fe
0.125000 0.000000 0.375000 Fe
0.125000 0.000000 0.500000 Fe
0.125000 0.000000 0.625000 Fe
0.125000 0.000000 0.750000 Fe
0.125000 0.000000 0.875000 Fe
0.125000 0.125000 0.000000 Fe
0.125000 0.125000 0.125000 Fe
0.125000 0.125000 0.250000 Fe
0.125000 0.125000 0.375000 Fe
0.125000 0.125000 0.500000 Fe
0.125000 0.125000 0.625000 Fe
0.125000 0.125000 0.750000 Fe
0.125000 0.125000 0.875000 Fe
0.125000 0.250000 0.000000 Fe
0.125000 0.250000 0.125000 Fe
0.125000 0.250000 0.250000 Fe
0.125000 0.250000 0.375000 Fe
0.125000 0.250000 0.500000 Fe
0.125000 0.250000 0.625000 Fe
0.125000 0.250000 0.750000 Fe
0.125000 0.250000 0.875000 Fe
0.125000 0.375000 0.000000 Fe
0.125000 0.375000 0.125000 Fe
0.125000 0.375000 0.250000 Fe
0.125000 0.375000 0.375000 Fe
0.125000 0.375000 0.500000 Fe
0.125000 0.375000 0.625000 Fe
0.125000 0.375000 0.750000 Fe
0.125000 0.375000 0.875000 Fe
0.125000 0.500000 0.000000 Fe
0.125000 0.500000 0.125000 Fe
0.125000 0.500000 0.250000 Fe
0.125000 0.500000 0.375000 Fe
0.125000 0.500000 0.500000 Fe
0.125000 0.500000 0.625000 Fe
0.125000 0.500000 0.750000 Fe
0.125000 0.500000 0.875000 Fe
0.125000 0.625000 0.000000 Fe
0.125000 0.625000 0.125000 Fe
0.125000 0.625000 0.250000 Fe
0.125000 0.625000 0.375000 Fe
0.125000 0.625000 0.500000 Fe
0.125000 0.625000 0.625000 Fe
0.125000 0.625000 0.750000 Fe
0.125000 0.625000 0.875000 Fe
0.125000 0.750000 0.000000 Fe
0.125000 0.750000 0.125000 Fe
0.125000 0.750000 0.250000 Fe
0.125000 0.750000 0.375000 Fe
0.125000 0.750000 0.500000 Fe
0.125000 0.750000 0.625000 Fe
0.125000 0.750000 0.750000 Fe
0.125000 0.750000 0.875000 Fe
0.125000 0.875000 0.000000 Fe
0.125000 0.875000 0.125000 Fe
0.125000 0.875000 0.250000 Fe
0.125000 0.875000 0.375000 Fe
0.125000 0.875000 0.500000 Fe
0.125000 0.875000 0.625000 Fe
0.125000 0.875000 0.750000 Fe
0.125000 0.875000 0.875000 Fe
0.250000 0.000000 0.000000 Fe
0.250000 0.000000 0.125000 Fe
0.250000 0.000000 0.250000 Fe
0.250000 0.000000 0.375000 Fe
0.250000 0.000000 0.500000 Fe
0.250000 0.000000 0.625000 Fe
0.250000 0.000000 0.750000 Fe
0.250000 0.000000 0.875000 Fe
0.250000 0.125000 0.000000 Fe
0.250000 0.125000 0.125000 Fe
0.250000 0.125000 0.250000 Fe
0.250000 0.125000 0.375000 Fe
0.250000 0.125000 0.500000 Fe
0.250000 0.125000 0.625000 Fe
0.250000 0.125000 0.750000 Fe
0.250000 0.125000 0.875000 Fe
0.250000 0.250000 0.000000 Fe
0.250000 0.250000 0.125000 Fe
0.250000 0.250000 0.250000 Fe
0.250000 0.250000 0.375000 Fe
0.250000 0.250000 0.500000 Fe
0.250000 0.250000 0.625000 Fe
0.250000 0.250000 0.750000 Fe
0.250000 0.250000 0.875000 Fe
0.250000 0.375000 0.000000 Fe
0.250000 0.375000 0.125000 Fe
0.250000 0.375000 0.250000 Fe
0.250000 0.375000 0.375000 Fe
0.250000 0.375000 0.500000 Fe
0.250000 0.375000 0.625000 Fe
0.250000 0.375000 0.750000 Fe
0.250000 0.375000 0.875000 Fe
0.250000 0.500000 0.000000 Fe
0.250000 0.500000 0.125000 Fe
0.250000 0.500000 0.250000 Fe
0.250000 0.500000 0.375000 Fe
0.250000 0.500000 0.500000 Fe
0.250000 0.500000 0.625000 Fe
0.250000 0.500000 0.750000 Fe
0.250000 0.500000 0.875000 Fe
0.250000 0.625000 0.000000 Fe
0.250000 0.625000 0.125000 Fe
0.250000 0.625000 0.250000 Fe
0.250000 0.625000 0.375000 Fe
0.250000 0.625000 0.500000 Fe
0.250000 0.625000 0.625000 Fe
0.250000 0.625000 0.750000 Fe
0.250000 0.625000 0.875000 Fe
0.250000 0.750000 0.000000 Fe
0.250000 0.750000 0.125000 Fe
0.250000 0.750000 0.250000 Fe
0.250000 0.750000 0.375000 Fe
0.250000 0.750000 0.500000 Fe
0.250000 0.750000 0.625000 Fe
0.250000 0.750000 0.750000 Fe
0.250000 0.750000 0.875000 Fe
0.250000 0.875000 0.000000 Fe
0.250000 0.875000 0.125000 Fe
0.250000 0.875000 0.250000 Fe
0.250000 0.875000 0.375000 Fe
0.250000 0.875000 0.500000 Fe
0.250000 0.875000 0.625000 Fe
0.250000 0.875000 0.750000 Fe
0.250000 0.875000 0.875000 Fe
0.375000 0.000000 0.000000 Fe
0.375000 0.000000 0.125000 Fe
0.375000 0.000000 0.250000 Fe
0.375000 0.000000 0.375000 Fe
0.375000 0.000000 0.500000 Fe
0.375000 0.000000 0.625000 Fe
0.375000 0.000000 0.750000 Fe
0.375000 0.000000 0.875000 Fe
0.375000 0.125000 0.000000 Fe
0.375000 0.125000 0.125000 Fe
0.375000 0.125000 0.250000 Fe
0.375000 0.125000 0.375000 Fe
0.375000 0.125000 0.500000 Fe
0.375000 0.125000 0.625000 Fe
0.375000 0.125000 0.750000 Fe
0.375000 0.125000 0.875000 Fe
0.375000 0.250000 0.000000 Fe
0.375000 0.250000 0.125000 Fe
0.375000 0.250000 0.250000 Fe
0.375000 0.250000 0.375000 Fe
0.375000 0.250000 0.500000 Fe
0.375000 0.250000 0.625000 Fe
0.375000 0.250000 0.750000 Fe
0.375000 0.250000 0.875000 Fe
0.375000 0.375000 0.000000 Fe
0.375000 0.375000 0.125000 Fe
0.375000 0.375000 0.250000 Fe
0.375000 0.375000 0.375000 Fe
0.375000 0.375000 0.500000 Fe
0.375000 0.375000 0.625000 Fe
0.375000 0.375000 0.750000 Fe
0.375000 0.375000 0.875000 Fe
0.375000 0.500000 0.000000 Fe
0.375000 0.500000 0.125000 Fe
0.375000 0.500000 0.250000 Fe
0.375000 0.500000 0.375000 Fe
0.375000 0.500000 0.500000 Fe
0.375000 0.500000 0.625000 Fe
0.375000 0.500000 0.750000 Fe
0.375000 0.500000 0.875000 Fe
0.375000 0.625000 0.000000 Fe
0.375000 0.625000 0.125000 Fe
0.375000 0.625000 0.250000 Fe
0.375000 0.625000 0.375000 Fe
0.375000 0.625000 0.500000 Fe
0.375000 0.625000 0.625000 Fe
0.375000 0.625000 0.750000 Fe
0.375000 0.625000 0.875000 Fe
0.375000 0.750000 0.000000 Fe
0.375000 0.750000 0.125000 Fe
0.375000 0.750000 0.250000 Fe
0.375000 0.750000 0.375000 Fe
0.375000 0.750000 0.500000 Fe
0.375000 0.750000 0.625000 Fe
0.375000 0.750000 0.750000 Fe
0.375000 0.750000 0.875000 Fe
0.375000 0.875000 0.000000 Fe
0.375000 0.875000 0.125000 Fe
0.375000 0.875000 0.250000 Fe
0.375000 0.875000 0.375000 Fe
0.375000 0.875000 0.500000 Fe
0.375000 0.875000 0.625000 Fe
0.375000 0.875000 0.750000 Fe
0.375000 0.875000 0.875000 Fe
0.500000 0.000000 0.000000 Fe
0.500000 0.000000 0.125000 Fe
0.500000 0.000000 0.250000 Fe
0.500000 0.000000 0.375000 Fe
0.500000 0.000000 0.500000 Fe
0.500000 0.000000 0.625000 Fe
0.500000 0.000000 0.750000 Fe
0.500000 0.000000 0.875000 Fe
0.500000 0.125000 0.000000 Fe
0.500000 0.125000 0.125000 Fe
0.500000 0.125000 0.250000 Fe
0.500000 0.125000 0.375000 Fe
0.500000 0.125000 0.500000 Fe
0.500000 0.125000 0.625000 Fe
0.500000 0.125000 0.750000 Fe
0.500000 0.125000 0.875000 Fe
0.500000 0.250000 0.000000 Fe
0.500000 0.250000 0.125000 Fe
0.500000 0.250000 0.250000 Fe
0.500000 0.250000 0.375000 Fe
0.500000 0.250000 0.500000 Fe
0.500000 0.250000 0.625000 Fe
0.500000 0.250000 0.750000 Fe
0.500000 0.250000 0.875000 Fe
0.500000 0.375000 0.000000 Fe
0.500000 0.375000 0.125000 Fe
0.500000 0.375000 0.250000 Fe
0.500000 0.375000 0.375000 Fe
0.500000 0.375000 0.500000 Fe
0.500000 0.375000 0.625000 Fe
0.500000 0.375000 0.750000 Fe
0.500000 0.375000 0.875000 Fe
0.500000 0.500000 0.000000 Fe
0.500000 0.500000 0.125000 Fe
0.500000 0.500000 0.250000 Fe
0.500000 0.500000 0.375000 Fe
0.500000 0.500000 0.500000 Fe
0.500000 0.500000 0.625000 Fe
0.500000 0.500000 0.750000 Fe
0.500000 0.500000 0.875000 Fe
0.500000 0.625000 0.000000 Fe
0.500000 0.625000 0.125000 Fe
0.500000 0.625000 0.250000 Fe
0.500000 0.625000 0.375000 Fe
0.500000 0.625000 0.500000 Fe
0.500000 0.625000 0.625000 Fe
0.500000 0.625000 0.750000 Fe
0.500000 0.625000 0.875000 Fe
0.500000 0.750000 0.000000 Fe
0.500000 0.750000 0.125000 Fe
0.500000 0.750000 0.250000 Fe
0.500000 0.750000 0.375000 Fe
0.500000 0.750000 0.500000 Fe
0.500000 0.750000 0.625000 Fe
0.500000 0.750000 0.750000 Fe
0.500000 0.750000 0.875000 Fe
0.500000 0.875000 0.000000 Fe
0.500000 0.875000 0.125000 Fe
0.500000 0.875000 0.250000 Fe
0.500000 0.875000 0.375000 Fe
0.500000 0.875000 0.500000 Fe
0.500000 0.875000 0.625000 Fe
0.500000 0.875000 0.750000 Fe
0.500000 0.875000 0.875000 Fe
0.625000 0.000000 0.000000 Fe
0.625000 0.000000 0.125000 Fe
0.625000 0.000000 0.250000 Fe
0.625000 0.000000 0.375000 Fe
0.625000 0.000000 0.500000 Fe
0.625000 0.000000 0.625000 Fe
0.625000 0.000000 0.750000 Fe
0.625000 0.000000 0.875000 Fe
0.625000 0.125000 0.000000 Fe
0.625000 0.125000 0.125000 Fe
0.625000 0.125000 0.250000 Fe
0.625000 0.125000 0.375000 Fe
0.625000 0.125000 0.500000 Fe
0.625000 0.125000 0.625000 Fe
0.625000 0.125000 0.750000 Fe
0.625000 0.125000 0.875000 Fe
0.625000 0.250000 0.000000 Fe
0.625000 0.250000 0.125000 Fe
0.625000 0.250000 0.250000 Fe
0.625000 0.250000 0.375000 Fe
0.625000 0.250000 0.500000 Fe
0.625000 0.250000 0.625000 Fe
0.625000 0.250000 0.750000 Fe
0.625000 0.250000 0.875000 Fe
0.625000 0.375000 0.000000 Fe
0.625000 0.375000 0.125000 Fe
0.625000 0.375000 0.250000 Fe
0.625000 0.375000 0.375000 Fe
0.625000 0.375000 0.500000 Fe
0.625000 0.375000 0.625000 Fe
0.625000 0.375000 0.750000 Fe
0.625000 0.375000 0.875000 Fe
0.625000 0.500000 0.000000 Fe
0.625000 0.500000 0.125000 Fe
0.625000 0.500000 0.250000 Fe
0.625000 0.500000 0.375000 Fe
0.625000 0.500000 0.500000 Fe
0.625000 0.500000 0.625000 Fe
0.625000 0.500000 0.750000 Fe
0.625000 0.500000 0.875000 Fe
0.625000 0.625000 0.000000 Fe
0.625000 0.625000 0.125000 Fe
0.625000 0.625000 0.250000 Fe
0.625000 0.625000 0.375000 Fe
0.625000 0.625000 0.500000 Fe
0.625000 0.625000 0.625000 Fe
0.625000 0.625000 0.750000 Fe
0.625000 0.625000 0.875000 Fe
0.625000 0.750000 0.000000 Fe
0.625000 0.750000 0.125000 Fe
0.625000 0.750000 0.250000 Fe
0.625000 0.750000 0.375000 Fe
0.625000 0.750000 0.500000 Fe
0.625000 0.750000 0.625000 Fe
0.625000 0.750000 0.750000 Fe
0.625000 0.750000 0.875000 Fe
0.625000 0.875000 0.000000 Fe
0.625000 0.875000 0.125000 Fe
0.625000 0.875000 0.250000 Fe
0.625000 0.875000 0.375000 Fe
0.625000 0.875000 0.500000 Fe
0.625000 0.875000 0.625000 Fe
0.625000 0.875000 0.750000 Fe
0.625000 0.875000 0.875000 Fe
0.750000 0.000000 0.000000 Fe
0.750000 0.000000 0.125000 Fe
0.750000 0.000000 0.250000 Fe
0.750000 0.000000 0.375000 Fe
0.750000 0.000000 0.500000 Fe
0.750000 0.000000 0.625000 Fe
0.750000 0.000000 0.750000 Fe
0.750000 0.000000 0.875000 Fe
0.750000 0.125000 0.000000 Fe
0.750000 0.125000 0.125000 Fe
0.750000 0.125000 0.250000 Fe
0.750000 0.125000 0.375000 Fe
0.750000 0.125000 0.500000 Fe
0.750000 0.125000 0.625000 Fe
0.750000 0.125000 0.750000 Fe
0.750000 0.125000 0.875000 Fe
0.750000 0.250000 0.000000 Fe
0.750000 0.250000 0.125000 Fe
0.750000 0.250000 0.250000 Fe
0.750000 0.250000 0.375000 Fe
0.750000 0.250000 0.500000 Fe
0.750000 0.250000 0.625000 Fe
0.750000 0.250000 0.750000 Fe
0.750000 0.250000 0.875000 Fe
0.750000 0.375000 0.000000 Fe
0.750000 0.375000 0.125000 Fe
0.750000 0.375000 0.250000 Fe
0.750000 0.375000 0.375000 Fe
0.750000 0.375000 0.500000 Fe
0.750000 0.375000 0.625000 Fe
0.750000 0.375000 0.750000 Fe
0.750000 0.375000 0.875000 Fe
0.750000 0.500000 0.000000 Fe
0.750000 0.500000 0.125000 Fe
0.750000 0.500000 0.250000 Fe
0.750000 0.500000 0.375000 Fe
0.750000 0.500000 0.500000 Fe
0.750000 0.500000 0.625000 Fe
0.750000 0.500000 0.750000 Fe
0.750000 0.500000 0.875000 Fe
0.750000 0.625000 0.000000 Fe
0.750000 0.625000 0.125000 Fe
0.750000 0.625000 0.250000 Fe
0.750000 0.625000 0.375000 Fe
0.750000 0.625000 0.500000 Fe
0.750000 0.625000 0.625000 Fe
0.750000 0.625000 0.750000 Fe
0.750000 0.625000 0.875000 Fe
0.750000 0.750000 0.000000 Fe
0.750000 0.750000 0.125000 Fe
0.750000 0.750000 0.250000 Fe
0.750000 0.750000 0.375000 Fe
0.750000 0.750000 0.500000 Fe
0.750000 0.750000 0.625000 Fe
0.750000 0.750000 0.750000 Fe
0.750000 0.750000 0.875000 Fe
0.750000 0.875000 0.000000 Fe
0.750000 0.875000 0.125000 Fe
0.750000 0.875000 0.250000 Fe
0.750000 0.875000 0.375000 Fe
0.750000 0.875000 0.500000 Fe
0.750000 0.875000 0.625000 Fe
0.750000 0.875000 0.750000 Fe
0.750000 0.875000 0.875000 Fe
0.875000 0.000000 0.000000 Fe
0.875000 0.000000 0.125000 Fe
0.875000 0.000000 0.250000 Fe
0.875000 0.000000 0.375000 Fe
0.875000 0.000000 0.500000 Fe
0.875000 0.000000 0.625000 Fe
0.875000 0.000000 0.750000 Fe
0.875000 0.000000 0.875000 Fe
0.875000 0.125000 0.000000 Fe
0.875000 0.125000 0.125000 Fe
0.875000 0.125000 0.250000 Fe
0.875000 0.125000 0.375000 Fe
0.875000 0.125000 0.500000 Fe
0.875000 0.125000 0.625000 Fe
0.875000 0.125000 0.750000 Fe
0.875000 0.125000 0.875000 Fe
0.875000 0.250000 0.000000 Fe
0.875000 0.250000 0.125000 Fe
0.875000 0.250000 0.250000 Fe
0.875000 0.250000 0.375000 Fe
0.875000 0.250000 0.500000 Fe
0.875000 0.250000 0.625000 Fe
0.875000 0.250000 0.750000 Fe
0.875000 0.250000 0.875000 Fe
0.875000 0.375000 0.000000 Fe
0.875000 0.375000 0.125000 Fe
0.875000 0.375000 0.250000 Fe
0.875000 0.375000 0.375000 Fe
0.875000 0.375000 0.500000 Fe
0.875000 0.375000 0.625000 Fe
0.875000 0.375000 0.750000 Fe
0.875000 0.375000 0.875000 Fe
0.875000 0.500000 0.000000 Fe
0.875000 0.500000 0.125000 Fe
0.875000 0.500000 0.250000 Fe
0.875000 0.500000 0.375000 Fe
0.875000 0.500000 0.500000 Fe
0.875000 0.500000 0.625000 Fe
0.875000 0.500000 0.750000 Fe
0.875000 0.500000 0.875000 Fe
0.875000 0.625000 0.000000 Fe
0.875000 0.625000 0.125000 Fe
0.875000 0.625000 0.250000 Fe
0.875000 0.625000 0.375000 Fe
0.875000 0.625000 0.500000 Fe
0.875000 0.625000 0.625000 Fe
0.875000 0.625000 0.750000 Fe
0.875000 0.625000 0.875000 Fe
0.875000 0.750000 0.000000 Fe
0.875000 0.750000 0.125000 Fe
0.875000 0.750000 0.250000 Fe
0.875000 0.750000 0.375000 Fe
0.875000 0.750000 0.500000 Fe
0.875000 0.750000 0.625000 Fe
0.875000 0.750000 0.750000 Fe
0.875000 0.750000 0.875000 Fe
0.875000 0.875000 0.000000 Fe
0.875000 0.875000 0.125000 Fe
0.875000 0.875000 0.250000 Fe
0.875000 0.875000 0.375000 Fe
0.875000 0.875000 0.500000 Fe
0.875000 0.875000 0.625000 Fe
0.875000 0.875000 0.750000 Fe
0.875000 0.875000 0.875000 Fe
0.062500 0.062500 0.062500 Fe
0.062500 0.062500 0.187500 Fe
0.062500 0.062500 0.312500 Fe
0.062500 0.062500 0.437500 Fe
0.062500 0.062500 0.562500 Fe
0.062500 0.062500 0.687500 Fe
0.062500 0.062500 0.812500 Fe
0.062500 0.062500 0.937500 Fe
0.062500 0.187500 0.062500 Fe
0.062500 0.187500 0.187500 Fe
0.062500 0.187500 0.312500 Fe
0.062500 0.187500 0.437500 Fe
0.062500 0.187500 0.562500 Fe
0.062500 0.187500 0.687500 Fe
0.062500 0.187500 0.812500 Fe
0.062500 0.187500 0.937500 Fe
0.062500 0.312500 0.062500 Fe
0.062500 0.312500 0.187500 Fe
0.062500 0.312500 0.312500 Fe
0.062500 0.312500 0.437500 Fe
0.062500 0.312500 0.562500 Fe
0.062500 0.312500 0.687500 Fe
0.062500 0.312500 0.812500 Fe
0.062500 0.312500 0.937500 Fe
0.062500 0.437500 0.062500 Fe
0.062500 0.437500 0.187500 Fe
0.062500 0.437500 0.312500 Fe
0.062500 0.437500 0.437500 Fe
0.062500 0.437500 0.562500 Fe
0.062500 0.437500 0.687500 Fe
0.062500 0.437500 0.812500 Fe
0.062500 0.437500 0.937500 Fe
0.062500 0.562500 0.062500 Fe
0.062500 0.562500 0.187500 Fe
0.062500 0.562500 0.312500 Fe
0.062500 0.562500 0.437500 Fe
0.062500 0.562500 0.562500 Fe
0.062500 0.562500 0.687500 Fe
0.062500 0.562500 0.812500 Fe
0.062500 0.562500 0.937500 Fe
0.062500 0.687500 0.062500 Fe
0.062500 0.687500 0.187500 Fe
0.062500 0.687500 0.312500 Fe
0.062500 0.687500 0.437500 Fe
0.062500 0.687500 0.562500 Fe
0.062500 0.687500 0.687500 Fe
0.062500 0.687500 0.812500 Fe
0.062500 0.687500 0.937500 Fe
0.062500 0.812500 0.062500 Fe
0.062500 0.812500 0.187500 Fe
0.062500 0.812500 0.312500 Fe
0.062500 0.812500 0.437500 Fe
0.062500 0.812500 0.562500 Fe
0.062500 0.812500 0.687500 Fe
0.062500 0.812500 0.812500 Fe
0.062500 0.812500 0.937500 Fe
0.062500 0.937500 0.062500 Fe
0.062500 0.937500 0.187500 Fe
0.062500 0.937500 0.312500 Fe
0.062500 0.937500 0.437500 Fe
0.062500 0.937500 0.562500 Fe
0.062500 0.937500 0.687500 Fe
0.062500 0.937500 0.812500 Fe
0.062500 0.937500 0.937500 Fe
0.187500 0.062500 0.062500 Fe
0.187500 0.062500 0.187500 Fe
0.187500 0.062500 0.312500 Fe
0.187500 0.062500 0.437500 Fe
0.187500 0.062500 0.562500 Fe
0.187500 0.062500 0.687500 Fe
0.187500 0.062500 0.812500 Fe
0.187500 0.062500 0.937500 Fe
0.187500 0.187500 0.062500 Fe
0.187500 0.187500 0.187500 Fe
0.187500 0.187500 0.312500 Fe
0.187500 0.187500 0.437500 Fe
0.187500 0.187500 0.562500 Fe
0.187500 0.187500 0.687500 Fe
0.187500 0.187500 0.812500 Fe
0.187500 0.187500 0.937500 Fe
0.187500 0.312500 0.062500 Fe
0.187500 0.312500 0.187500 Fe
0.187500 0.312500 0.312500 Fe
0.187500 0.312500 0.437500 Fe
0.187500 0.312500 0.562500 Fe
0.187500 0.312500 0.687500 Fe
0.187500 0.312500 0.812500 Fe
0.187500 0.312500 0.937500 Fe
0.187500 0.437500 0.062500 Fe
0.187500 0.437500 0.187500 Fe
0.187500 0.437500 0.312500 Fe
0.187500 0.437500 0.437500 Fe
0.187500 0.437500 0.562500 Fe
0.187500 0.437500 0.687500 Fe
0.187500 0.437500 0.812500 Fe
0.187500 0.437500 0.937500 Fe
0.187500 0.562500 0.062500 Fe
0.187500 0.562500 0.187500 Fe
0.187500 0.562500 0.312500 Fe
0.187500 0.562500 0.437500 Fe
0.187500 0.562500 0.562500 Fe
0.187500 0.562500 0.687500 Fe
0.187500 0.562500 0.812500 Fe
0.187500 0.562500 0.937500 Fe
0.187500 0.687500 0.062500 Fe
0.187500 0.687500 0.187500 Fe
0.187500 0.687500 0.312500 Fe
0.187500 0.687500 0.437500 Fe
0.187500 0.687500 0.562500 Fe
0.187500 0.687500 0.687500 Fe
0.187500 0.687500 0.812500 Fe
0.187500 0.687500 0.937500 Fe
0.187500 0.812500 0.062500 Fe
0.187500 0.812500 0.187500 Fe
0.187500 0.812500 0.312500 Fe
0.187500 0.812500 0.437500 Fe
0.187500 0.812500 0.562500 Fe
0.187500 0.812500 0.687500 Fe
0.187500 0.812500 0.812500 Fe
0.187500 0.812500 0.937500 Fe
0.187500 0.937500 0.062500 Fe
0.187500 0.937500 0.187500 Fe
0.187500 0.937500 0.312500 Fe
0.187500 0.937500 0.437500 Fe
0.187500 0.937500 0.562500 Fe
0.187500 0.937500 0.687500 Fe
0.187500 0.937500 0.812500 Fe
0.187500 0.937500 0.937500 Fe
0.312500 0.062500 0.062500 Fe
0.312500 0.062500 0.187500 Fe
0.312500 0.062500 0.312500 Fe
0.312500 0.062500 0.437500 Fe
0.312500 0.062500 0.562500 Fe
0.312500 0.062500 0.687500 Fe
0.312500 0.062500 0.812500 Fe
0.312500 0.062500 0.937500 Fe
0.312500 0.187500 0.062500 Fe
0.312500 0.187500 0.187500 Fe
0.312500 0.187500 0.312500 Fe
0.312500 0.187500 0.437500 Fe
0.312500 0.187500 0.562500 Fe
0.312500 0.187500 0.687500 Fe
0.312500 0.187500 0.812500 Fe
0.312500 0.187500 0.937500 Fe
0.312500 0.312500 0.062500 Fe
0.312500 0.312500 0.187500 Fe
0.312500 0.312500 0.312500 Fe
0.312500 0.312500 0.437500 Fe
0.312500 0.312500 0.562500 Fe
0.312500 0.312500 0.687500 Fe
0.312500 0.312500 0.812500 Fe
0.312500 0.312500 0.937500 Fe
0.312500 0.437500 0.062500 Fe
0.312500 0.437500 0.187500 Fe
0.312500 0.437500 0.312500 Fe
0.312500 0.437500 0.437500 Fe
0.312500 0.437500 0.562500 Fe
0.312500 0.437500 0.687500 Fe
0.312500 0.437500 0.812500 Fe
0.312500 0.437500 0.937500 Fe
0.312500 0.562500 0.062500 Fe
0.312500 0.562500 0.187500 Fe
0.312500 0.562500 0.312500 Fe
0.312500 0.562500 0.437500 Fe
0.312500 0.562500 0.562500 Fe
0.312500 0.562500 0.687500 Fe
0.312500 0.562500 0.812500 Fe
0.312500 0.562500 0.937500 Fe
0.312500 0.687500 0.062500 Fe
0.312500 0.687500 0.187500 Fe
0.312500 0.687500 0.312500 Fe
0.312500 0.687500 0.437500 Fe
0.312500 0.687500 0.562500 Fe
0.312500 0.687500 0.687500 Fe
0.312500 0.687500 0.812500 Fe
0.312500 0.687500 0.937500 Fe
0.312500 0.812500 0.062500 Fe
0.312500 0.812500 0.187500 Fe
0.312500 0.812500 0.312500 Fe
0.312500 0.812500 0.437500 Fe
0.312500 0.812500 0.562500 Fe
0.312500 0.812500 0.687500 Fe
0.312500 0.812500 0.812500 Fe
0.312500 0.812500 0.937500 Fe
0.312500 0.937500 0.062500 Fe
0.312500 0.937500 0.187500 Fe
0.312500 0.937500 0.312500 Fe
0.312500 0.937500 0.437500 Fe
0.312500 0.937500 0.562500 Fe
0.312500 0.937500 0.687500 Fe
0.312500 0.937500 0.812500 Fe
0.312500 0.937500 0.937500 Fe
0.437500 0.062500 0.062500 Fe
0.437500 0.062500 0.187500 Fe
0.437500 0.062500 0.312500 Fe
0.437500 0.062500 0.437500 Fe
0.437500 0.062500 0.562500 Fe
0.437500 0.062500 0.687500 Fe
0.437500 0.062500 0.812500 Fe
0.437500 0.062500 0.937500 Fe
0.437500 0.187500 0.062500 Fe
0.437500 0.187500 0.187500 Fe
0.437500 0.187500 0.312500 Fe
0.437500 0.187500 0.437500 Fe
0.437500 0.187500 0.562500 Fe
0.437500 0.187500 0.687500 Fe
0.437500 0.187500 0.812500 Fe
0.437500 0.187500 0.937500 Fe
0.437500 0.312500 0.062500 Fe
0.437500 0.312500 0.187500 Fe
0.437500 0.312500 0.312500 Fe
0.437500 0.312500 0.437500 Fe
0.437500 0.312500 0.562500 Fe
0.437500 0.312500 0.687500 Fe
0.437500 0.312500 0.812500 Fe
0.437500 0.312500 0.937500 Fe
0.437500 0.437500 0.062500 Fe
0.437500 0.437500 0.187500 Fe
0.437500 0.437500 0.312500 Fe
0.437500 0.437500 0.437500 Fe
0.437500 0.437500 0.562500 Fe
0.437500 0.437500 0.687500 Fe
0.437500 0.437500 0.812500 Fe
0.437500 0.437500 0.937500 Fe
0.437500 0.562500 0.062500 Fe
0.437500 0.562500 0.187500 Fe
0.437500 0.562500 0.312500 Fe
0.437500 0.562500 0.437500 Fe
0.437500 0.562500 0.562500 Fe
0.437500 0.562500 0.687500 Fe
0.437500 0.562500 0.812500 Fe
0.437500 0.562500 0.937500 Fe
0.437500 0.687500 0.062500 Fe
0.437500 0.687500 0.187500 Fe
0.437500 0.687500 0.312500 Fe
0.437500 0.687500 0.437500 Fe
0.437500 0.687500 0.562500 Fe
0.437500 0.687500 0.687500 Fe
0.437500 0.687500 0.812500 Fe
0.437500 0.687500 0.937500 Fe
0.437500 0.812500 0.062500 Fe
0.437500 0.812500 0.187500 Fe
0.437500 0.812500 0.312500 Fe
0.437500 0.812500 0.437500 Fe
0.437500 0.812500 0.562500 Fe
0.437500 0.812500 0.687500 Fe
0.437500 0.812500 0.812500 Fe
0.437500 0.812500 0.937500 Fe
0.437500 0.937500 0.062500 Fe
0.437500 0.937500 0.187500 Fe
0.437500 0.937500 0.312500 Fe
0.437500 0.937500 0.437500 Fe
0.437500 0.937500 0.562500 Fe
0.437500 0.937500 0.687500 Fe
0.437500 0.937500 0.812500 Fe
0.437500 0.937500 0.937500 Fe
0.562500 0.062500 0.062500 Fe
0.562500 0.062500 0.187500 Fe
0.562500 0.062500 0.312500 Fe
0.562500 0.062500 0.437500 Fe
0.562500 0.062500 0.562500 Fe
0.562500 0.062500 0.687500 Fe
0.562500 0.062500 0.812500 Fe
0.562500 0.062500 0.937500 Fe
0.562500 0.187500 0.062500 Fe
0.562500 0.187500 0.187500 Fe
0.562500 0.187500 0.312500 Fe
0.562500 0.187500 0.437500 Fe
0.562500 0.187500 0.562500 Fe
0.562500 0.187500 0.687500 Fe
0.562500 0.187500 0.812500 Fe
0.562500 0.187500 0.937500 Fe
0.562500 0.312500 0.062500 Fe
0.562500 0.312500 0.187500 Fe
0.562500 0.312500 0.312500 Fe
0.562500 0.312500 0.437500 Fe
0.562500 0.312500 0.562500 Fe
0.562500 0.312500 0.687500 Fe
0.562500 0.312500 0.812500 Fe
0.562500 0.312500 0.937500 Fe
0.562500 0.437500 0.062500 Fe
0.562500 0.437500 0.187500 Fe
0.562500 0.437500 0.312500 Fe
0.562500 0.437500 0.437500 Fe
0.562500 0.437500 0.562500 Fe
0.562500 0.437500 0.687500 Fe
0.562500 0.437500 0.812500 Fe
0.562500 0.437500 0.937500 Fe
0.562500 0.562500 0.062500 Fe
0.562500 0.562500 0.187500 Fe
0.562500 0.562500 0.312500 Fe
0.562500 0.562500 0.437500 Fe
0.562500 0.562500 0.562500 Fe
0.562500 0.562500 0.687500 Fe
0.562500 0.562500 0.812500 Fe
0.562500 0.562500 0.937500 Fe
0.562500 0.687500 0.062500 Fe
0.562500 0.687500 0.187500 Fe
0.562500 0.687500 0.312500 Fe
0.562500 0.687500 0.437500 Fe
0.562500 0.687500 0.562500 Fe
0.562500 0.687500 0.687500 Fe
0.562500 0.687500 0.812500 Fe
0.562500 0.687500 0.937500 Fe
0.562500 0.812500 0.062500 Fe
0.562500 0.812500 0.187500 Fe
0.562500 0.812500 0.312500 Fe
0.562500 0.812500 0.437500 Fe
0.562500 0.812500 0.562500 Fe
0.562500 0.812500 0.687500 Fe
0.562500 0.812500 0.812500 Fe
0.562500 0.812500 0.937500 Fe
0.562500 0.937500 0.062500 Fe
0.562500 0.937500 0.187500 Fe
0.562500 0.937500 0.312500 Fe
0.562500 0.937500 0.437500 Fe
0.562500 0.937500 0.562500 Fe
0.562500 0.937500 0.687500 Fe
0.562500 0.937500 0.812500 Fe
0.562500 0.937500 0.937500 Fe
0.687500 0.062500 0.062500 Fe
0.687500 0.062500 0.187500 Fe
0.687500 0.062500 0.312500 Fe
0.687500 0.062500 0.437500 Fe
0.687500 0.062500 0.562500 Fe
0.687500 0.062500 0.687500 Fe
0.687500 0.062500 0.812500 Fe
0.687500 0.062500 0.937500 Fe
0.687500 0.187500 0.062500 Fe
0.687500 0.187500 0.187500 Fe
0.687500 0.187500 0.312500 Fe
0.687500 0.187500 0.437500 Fe
0.687500 0.187500 0.562500 Fe
0.687500 0.187500 0.687500 Fe
0.687500 0.187500 0.812500 Fe
0.687500 0.187500 0.937500 Fe
0.687500 0.312500 0.062500 Fe
0.687500 0.312500 0.187500 Fe
0.687500 0.312500 0.312500 Fe
0.687500 0.312500 0.437500 Fe
0.687500 0.312500 0.562500 Fe
0.687500 0.312500 0.687500 Fe
0.687500 0.312500 0.812500 Fe
0.687500 0.312500 0.937500 Fe
0.687500 0.437500 0.062500 Fe
0.687500 0.437500 0.187500 Fe
0.687500 0.437500 0.312500 Fe
0.687500 0.437500 0.437500 Fe
0.687500 0.437500 0.562500 Fe
0.687500 0.437500 0.687500 Fe
0.687500 0.437500 0.812500 Fe
0.687500 0.437500 0.937500 Fe
0.687500 0.562500 0.062500 Fe
0.687500 0.562500 0.187500 Fe
0.687500 0.562500 0.312500 Fe
0.687500 0.562500 0.437500 Fe
0.687500 0.562500 0.562500 Fe
0.687500 0.562500 0.687500 Fe
0.687500 0.562500 0.812500 Fe
0.687500 0.562500 0.937500 Fe
0.687500 0.687500 0.062500 Fe
0.687500 0.687500 0.187500 Fe
0.687500 0.687500 0.312500 Fe
0.687500 0.687500 0.437500 Fe
0.687500 0.687500 0.562500 Fe
0.687500 0.687500 0.687500 Fe
0.687500 0.687500 0.812500 Fe
0.687500 0.687500 0.937500 Fe
0.687500 0.812500 0.062500 Fe
0.687500 0.812500 0.187500 Fe
0.687500 0.812500 0.312500 Fe
0.687500 0.812500 0.437500 Fe
0.687500 0.812500 0.562500 Fe
0.687500 0.812500 0.687500 Fe
0.687500 0.812500 0.812500 Fe
0.687500 0.812500 0.937500 Fe
0.687500 0.937500 0.062500 Fe
0.687500 0.937500 0.187500 Fe
0.687500 0.937500 0.312500 Fe
0.687500 0.937500 0.437500 Fe
0.687500 0.937500 0.562500 Fe
0.687500 0.937500 0.687500 Fe
0.687500 0.937500 0.812500 Fe
0.687500 0.937500 0.937500 Fe
0.812500 0.062500 0.062500 Fe
0.812500 0.062500 0.187500 Fe
0.812500 0.062500 0.312500 Fe
0.812500 0.062500 0.437500 Fe
0.812500 0.062500 0.562500 Fe
0.812500 0.062500 0.687500 Fe
0.812500 0.062500 0.812500 Fe
0.812500 0.062500 0.937500 Fe
0.812500 0.187500 0.062500 Fe
0.812500 0.187500 0.187500 Fe
0.812500 0.187500 0.312500 Fe
0.812500 0.187500 0.437500 Fe
0.812500 0.187500 0.562500 Fe
0.812500 0.187500 0.687500 Fe
0.812500 0.187500 0.812500 Fe
0.812500 0.187500 0.937500 Fe
0.812500 0.312500 0.062500 Fe
0.812500 0.312500 0.187500 Fe
0.812500 0.312500 0.312500 Fe
0.812500 0.312500 0.437500 Fe
0.812500 0.312500 0.562500 Fe
0.812500 0.312500 0.687500 Fe
0.812500 0.312500 0.812500 Fe
0.812500 0.312500 0.937500 Fe
0.812500 0.437500 0.062500 Fe
0.812500 0.437500 0.187500 Fe
0.812500 0.437500 0.312500 Fe
0.812500 0.437500 0.437500 Fe
0.812500 0.437500 0.562500 Fe
0.812500 0.437500 0.687500 Fe
0.812500 0.437500 0.812500 Fe
0.812500 0.437500 0.937500 Fe
0.812500 0.562500 0.062500 Fe
0.812500 0.562500 0.187500 Fe
0.812500 0.562500 0.312500 Fe
0.812500 0.562500 0.437500 Fe
0.812500 0.562500 0.562500 Fe
0.812500 0.562500 0.687500 Fe
0.812500 0.562500 0.812500 Fe
0.812500 0.562500 0.937500 Fe
0.812500 0.687500 0.062500 Fe
0.812500 0.687500 0.187500 Fe
0.812500 0.687500 0.312500 Fe
0.812500 0.687500 0.437500 Fe
0.812500 0.687500 0.562500 Fe
0.812500 0.687500 0.687500 Fe
0.812500 0.687500 0.812500 Fe
0.812500 0.687500 0.937500 Fe
0.812500 0.812500 0.062500 Fe
0.812500 0.812500 0.187500 Fe
0.812500 0.812500 0.312500 Fe
0.812500 0.812500 0.437500 Fe
0.812500 0.812500 0.562500 Fe
0.812500 0.812500 0.687500 Fe
0.812500 0.812500 0.812500 Fe
0.812500 0.812500 0.937500 Fe
0.812500 0.937500 0.062500 Fe
0.812500 0.937500 0.187500 Fe
0.812500 0.937500 0.312500 Fe
0.812500 0.937500 0.437500 Fe
0.812500 0.937500 0.562500 Fe
0.812500 0.937500 0.687500 Fe
0.812500 0.937500 0.812500 Fe
0.812500 0.937500 0.937500 Fe
0.937500 0.062500 0.062500 Fe
0.937500 0.062500 0.187500 Fe
0.937500 0.062500 0.312500 Fe
0.937500 0.062500 0.437500 Fe
0.937500 0.062500 0.562500 Fe
0.937500 0.062500 0.687500 Fe
0.937500 0.062500 0.812500 Fe
0.937500 0.062500 0.937500 Fe
0.937500 0.187500 0.062500 Fe
0.937500 0.187500 0.187500 Fe
0.937500 0.187500 0.312500 Fe
0.937500 0.187500 0.437500 Fe
0.937500 0.187500 0.562500 Fe
0.937500 0.187500 0.687500 Fe
0.937500 0.187500 0.812500 Fe
0.937500 0.187500 0.937500 Fe
0.937500 0.312500 0.062500 Fe
0.937500 0.312500 0.187500 Fe
0.937500 0.312500 0.312500 Fe
0.937500 0.312500 0.437500 Fe
0.937500 0.312500 0.562500 Fe
0.937500 0.312500 0.687500 Fe
0.937500 0.312500 0.812500 Fe
0.937500 0.312500 0.937500 Fe
0.937500 0.437500 0.062500 Fe
0.937500 0.437500 0.187500 Fe
0.937500 0.437500 0.312500 Fe
0.937500 0.437500 0.437500 Fe
0.937500 0.437500 0.562500 Fe
0.937500 0.437500 0.687500 Fe
0.937500 0.437500 0.812500 Fe
0.937500 0.437500 0.937500 Fe
0.937500 0.562500 0.062500 Fe
0.937500 0.562500 0.187500 Fe
0.937500 0.562500 0.312500 Fe
0.937500 0.562500 0.437500 Fe