Mg1024
1.0
25.680000 0.000000 0.000000
-12.840000 22.239532 0.000000
0.000000 0.000000 41.680000
Mg
1024
direct
0.041667 0.083333 0.093750 Mg
0.041667 0.083333 0.218750 Mg
0.041667 0.083333 0.343750 Mg
0.041667 0.083333 0.468750 Mg
0.041667 0.083333 0.593750 Mg
0.041667 0.083333 0.718750 Mg
0.041667 0.083333 0.843750 Mg
0.041667 0.083333 0.968750 Mg
0.041667 0.208333 0.093750 Mg
0.041667 0.208333 0.218750 Mg
0.041667 0.208333 0.343750 Mg
0.041667 0.208333 0.468750 Mg
0.041667 0.208333 0.593750 Mg
0.041667 0.208333 0.718750 Mg
0.041667 0.208333 0.843750 Mg
0.041667 0.208333 0.968750 Mg
0.041667 0.333333 0.093750 Mg
0.041667 0.333333 0.218750 Mg
0.041667 0.333333 0.343750 Mg
0.041667 0.333333 0.468750 Mg
0.041667 0.333333 0.593750 Mg
0.041667 0.333333 0.718750 Mg
0.041667 0.333333 0.843750 Mg
0.041667 0.333333 0.968750 Mg
0.041667 0.458333 0.093750 Mg
0.041667 0.458333 0.218750 Mg
0.041667 0.458333 0.343750 Mg
0.041667 0.458333 0.468750 Mg
0.041667 0.458333 0.593750 Mg
0.041667 0.458333 0.718750 Mg
0.041667 0.458333 0.843750 Mg
0.041667 0.458333 0.968750 Mg
0.041667 0.583333 0.093750 Mg
0.041667 0.583333 0.218750 Mg
0.041667 0.583333 0.343750 Mg
0.041667 0.583333 0.468750 Mg
0.041667 0.583333 0.593750 Mg
0.041667 0.583333 0.718750 Mg
0.041667 0.583333 0.843750 Mg
0.041667 0.583333 0.968750 Mg
0.041667 0.708333 0.093750 Mg
0.041667 0.708333 0.218750 Mg
0.041667 0.708333 0.343750 Mg
0.041667 0.708333 0.468750 Mg
0.041667 0.708333 0.593750 Mg
0.041667 0.708333 0.718750 Mg
0.041667 0.708333 0.843750 Mg
0.041667 0.708333 0.968750 Mg
0.041667 0.833333 0.093750 Mg
0.041667 0.833333 0.218750 Mg
0.041667 0.833333 0.343750 Mg
0.041667 0.833333 0.468750 Mg
0.041667 0.833333 0.593750 Mg
0.041667 0.833333 0.718750 Mg
0.041667 0.833333 0.843750 Mg
0.041667 0.833333 0.968750 Mg
0.041667 0.958333 0.093750 Mg
0.041667 0.958333 0.218750 Mg
0.041667 0.958333 0.343750 Mg
0.041667 0.958333 0.468750 Mg
0.041667 0.958333 0.593750 Mg
0.041667 0.958333 0.718750 Mg
0.041667 0.958333 0.843750 Mg
0.041667 0.958333 0.968750 Mg
0.166667 0.083333 0.093750 Mg
0.166667 0.083333 0.218750 Mg
0.166667 0.083333 0.343750 Mg
0.166667 0.083333 0.468750 Mg
0.166667 0.083333 0.593750 Mg
0.166667 0.083333 0.718750 Mg
0.166667 0.083333 0.843750 Mg
0.166667 0.083333 0.968750 Mg
0.166667 0.208333 0.093750 Mg
0.166667 0.208333 0.218750 Mg
0.166667 0.208333 0.343750 Mg
0.166667 0.208333 0.468750 Mg
0.166667 0.208333 0.593750 Mg
0.166667 0.208333 0.718750 Mg
0.166667 0.208333 0.843750 Mg
0.166667 0.208333 0.968750 Mg
0.166667 0.333333 0.093750 Mg
0.166667 0.333333 0.218750 Mg
0.166667 0.333333 0.343750 Mg
0.166667 0.333333 0.468750 Mg
0.166667 0.333333 0.593750 Mg
0.166667 0.333333 0.718750 Mg
0.166667 0.333333 0.843750 Mg
0.166667 0.333333 0.968750 Mg
0.166667 0.458333 0.093750 Mg
0.166667 0.458333 0.218750 Mg
0.166667 0.458333 0.343750 Mg
0.166667 0.458333 0.468750 Mg
0.166667 0.458333 0.593750 Mg
0.166667 0.458333 0.718750 Mg
0.166667 0.458333 0.843750 Mg
0.166667 0.458333 0.968750 Mg
0.166667 0.583333 0.093750 Mg
0.166667 0.583333 0.218750 Mg
0.166667 0.583333 0.343750 Mg
0.166667 0.583333 0.468750 Mg
0.166667 0.583333 0.593750 Mg
0.166667 0.583333 0.718750 Mg
0.166667 0.583333 0.843750 Mg
0.166667 0.583333 0.968750 Mg
0.166667 0.708333 0.093750 Mg
0.166667 0.708333 0.218750 Mg
0.166667 0.708333 0.343750 Mg
0.166667 0.708333 0.468750 Mg
0.166667 0.708333 0.593750 Mg
0.166667 0.708333 0.718750 Mg
0.166667 0.708333 0.843750 Mg
0.166667 0.708333 0.968750 Mg
0.166667 0.833333 0.093750 Mg
0.166667 0.833333 0.218750 Mg
0.166667 0.833333 0.343750 Mg
0.166667 0.833333 0.468750 Mg
0.166667 0.833333 0.593750 Mg
0.166667 0.833333 0.718750 Mg
0.166667 0.833333 0.843750 Mg
0.166667 0.833333 0.968750 Mg
0.166667 0.958333 0.093750 Mg
0.166667 0.958333 0.218750 Mg
0.166667 0.958333 0.343750 Mg
0.166667 0.958333 0.468750 Mg
0.166667 0.958333 0.593750 Mg
0.166667 0.958333 0.718750 Mg
0.166667 0.958333 0.843750 Mg
0.166667 0.958333 0.968750 Mg
0.291667 0.083333 0.093750 Mg
0.291667 0.083333 0.218750 Mg
0.291667 0.083333 0.343750 Mg
0.291667 0.083333 0.468750 Mg
0.291667 0.083333 0.593750 Mg
0.291667 0.083333 0.718750 Mg
0.291667 0.083333 0.843750 Mg
0.291667 0.083333 0.968750 Mg
0.291667 0.208333 0.093750 Mg
0.291667 0.208333 0.218750 Mg
0.291667 0.208333 0.343750 Mg
0.291667 0.208333 0.468750 Mg
0.291667 0.208333 0.593750 Mg
0.291667 0.208333 0.718750 Mg
0.291667 0.208333 0.843750 Mg
0.291667 0.208333 0.968750 Mg
0.291667 0.333333 0.093750 Mg
0.291667 0.333333 0.218750 Mg
0.291667 0.333333 0.343750 Mg
0.291667 0.333333 0.468750 Mg
0.291667 0.333333 0.593750 Mg
0.291667 0.333333 0.718750 Mg
0.291667 0.333333 0.843750 Mg
0.291667 0.333333 0.968750 Mg
0.291667 0.458333 0.093750 Mg
0.291667 0.458333 0.218750 Mg
0.291667 0.458333 0.343750 Mg
0.291667 0.458333 0.468750 Mg
0.291667 0.458333 0.593750 Mg
0.291667 0.458333 0.718750 Mg
0.291667 0.458333 0.843750 Mg
0.291667 0.458333 0.968750 Mg
0.291667 0.583333 0.093750 Mg
0.291667 0.583333 0.218750 Mg
0.291667 0.583333 0.343750 Mg
0.291667 0.583333 0.468750 Mg
0.291667 0.583333 0.593750 Mg
0.291667 0.583333 0.718750 Mg
0.291667 0.583333 0.843750 Mg
0.291667 0.583333 0.968750 Mg
0.291667 0.708333 0.093750 Mg
0.291667 0.708333 0.218750 Mg
0.291667 0.708333 0.343750 Mg
0.291667 0.708333 0.468750 Mg
0.291667 0.708333 0.593750 Mg
0.291667 0.708333 0.718750 Mg
0.291667 0.708333 0.843750 Mg
0.291667 0.708333 0.968750 Mg
0.291667 0.833333 0.093750 Mg
0.291667 0.833333 0.218750 Mg
0.291667 0.833333 0.343750 Mg
0.291667 0.833333 0.468750 Mg
0.291667 0.833333 0.593750 Mg
0.291667 0.833333 0.718750 Mg
0.291667 0.833333 0.843750 Mg
0.291667 0.833333 0.968750 Mg
0.291667 0.958333 0.093750 Mg
0.291667 0.958333 0.218750 Mg
0.291667 0.958333 0.343750 Mg
0.291667 0.958333 0.468750 Mg
0.291667 0.958333 0.593750 Mg
0.291667 0.958333 0.718750 Mg
0.291667 0.958333 0.843750 Mg
0.291667 0.958333 0.968750 Mg
0.416667 0.083333 0.093750 Mg
0.416667 0.083333 0.218750 Mg
0.416667 0.083333 0.343750 Mg
0.416667 0.083333 0.468750 Mg
0.416667 0.083333 0.593750 Mg
0.416667 0.083333 0.718750 Mg
0.416667 0.083333 0.843750 Mg
0.416667 0.083333 0.968750 Mg
0.416667 0.208333 0.093750 Mg
0.416667 0.208333 0.218750 Mg
0.416667 0.208333 0.343750 Mg
0.416667 0.208333 0.468750 Mg
0.416667 0.208333 0.593750 Mg
0.416667 0.208333 0.718750 Mg
0.416667 0.208333 0.843750 Mg
0.416667 0.208333 0.968750 Mg
0.416667 0.333333 0.093750 Mg
0.416667 0.333333 0.218750 Mg
0.416667 0.333333 0.343750 Mg
0.416667 0.333333 0.468750 Mg
0.416667 0.333333 0.593750 Mg
0.416667 0.333333 0.718750 Mg
0.416667 0.333333 0.843750 Mg
0.416667 0.333333 0.968750 Mg
0.416667 0.458333 0.093750 Mg
0.416667 0.458333 0.218750 Mg
0.416667 0.458333 0.343750 Mg
0.416667 0.458333 0.468750 Mg
0.416667 0.458333 0.593750 Mg
0.416667 0.458333 0.718750 Mg
0.416667 0.458333 0.843750 Mg
0.416667 0.458333 0.968750 Mg
0.416667 0.583333 0.093750 Mg
0.416667 0.583333 0.218750 Mg
0.416667 0.583333 0.343750 Mg
0.416667 0.583333 0.468750 Mg
0.416667 0.583333 0.593750 Mg
0.416667 0.583333 0.718750 Mg
0.416667 0.583333 0.843750 Mg
0.416667 0.583333 0.968750 Mg
0.416667 0.708333 0.093750 Mg
0.416667 0.708333 0.218750 Mg
0.416667 0.708333 0.343750 Mg
0.416667 0.708333 0.468750 Mg
0.416667 0.708333 0.593750 Mg
0.416667 0.708333 0.718750 Mg
0.416667 0.708333 0.843750 Mg
0.416667 0.708333 0.968750 Mg
0.416667 0.833333 0.093750 Mg
0.416667 0.833333 0.218750 Mg
0.416667 0.833333 0.343750 Mg
0.416667 0.833333 0.468750 Mg
0.416667 0.833333 0.593750 Mg
0.416667 0.833333 0.718750 Mg
0.416667 0.833333 0.843750 Mg
0.416667 0.833333 0.968750 Mg
0.416667 0.958333 0.093750 Mg
0.416667 0.958333 0.218750 Mg
0.416667 0.958333 0.343750 Mg
0.416667 0.958333 0.468750 Mg
0.416667 0.958333 0.593750 Mg
0.416667 0.958333 0.718750 Mg
0.416667 0.958333 0.843750 Mg
0.416667 0.958333 0.968750 Mg
0.541667 0.083333 0.093750 Mg
0.541667 0.083333 0.218750 Mg
0.541667 0.083333 0.343750 Mg
0.541667 0.083333 0.468750 Mg
0.541667 0.083333 0.593750 Mg
0.541667 0.083333 0.718750 Mg
0.541667 0.083333 0.843750 Mg
0.541667 0.083333 0.968750 Mg
0.541667 0.208333 0.093750 Mg
0.541667 0.208333 0.218750 Mg
0.541667 0.208333 0.343750 Mg
0.541667 0.208333 0.468750 Mg
0.541667 0.208333 0.593750 Mg
0.541667 0.208333 0.718750 Mg
0.541667 0.208333 0.843750 Mg
0.541667 0.208333 0.968750 Mg
0.541667 0.333333 0.093750 Mg
0.541667 0.333333 0.218750 Mg
0.541667 0.333333 0.343750 Mg
0.541667 0.333333 0.468750 Mg
0.541667 0.333333 0.593750 Mg
0.541667 0.333333 0.718750 Mg
0.541667 0.333333 0.843750 Mg
0.541667 0.333333 0.968750 Mg
0.541667 0.458333 0.093750 Mg
0.541667 0.458333 0.218750 Mg
0.541667 0.458333 0.343750 Mg
0.541667 0.458333 0.468750 Mg
0.541667 0.458333 0.593750 Mg
0.541667 0.458333 0.718750 Mg
0.541667 0.458333 0.843750 Mg
0.541667 0.458333 0.968750 Mg
0.541667 0.583333 0.093750 Mg
0.541667 0.583333 0.218750 Mg
0.541667 0.583333 0.343750 Mg
0.541667 0.583333 0.468750 Mg
0.541667 0.583333 0.593750 Mg
0.541667 0.583333 0.718750 Mg
0.541667 0.583333 0.843750 Mg
0.541667 0.583333 0.968750 Mg
0.541667 0.708333 0.093750 Mg
0.541667 0.708333 0.218750 Mg
0.541667 0.708333 0.343750 Mg
0.541667 0.708333 0.468750 Mg
0.541667 0.708333 0.593750 Mg
0.541667 0.708333 0.718750 Mg
0.541667 0.708333 0.843750 Mg
0.541667 0.708333 0.968750 Mg
0.541667 0.833333 0.093750 Mg
0.541667 0.833333 0.218750 Mg
0.541667 0.833333 0.343750 Mg
0.541667 0.833333 0.468750 Mg
0.541667 0.833333 0.593750 Mg
0.541667 0.833333 0.718750 Mg
0.541667 0.833333 0.843750 Mg
0.541667 0.833333 0.968750 Mg
0.541667 0.958333 0.093750 Mg
0.541667 0.958333 0.218750 Mg
0.541667 0.958333 0.343750 Mg
0.541667 0.958333 0.468750 Mg
0.541667 0.958333 0.593750 Mg
0.541667 0.958333 0.718750 Mg
0.541667 0.958333 0.843750 Mg
0.541667 0.958333 0.968750 Mg
0.666667 0.083333 0.093750 Mg
0.666667 0.083333 0.218750 Mg
0.666667 0.083333 0.343750 Mg
0.666667 0.083333 0.468750 Mg
0.666667 0.083333 0.593750 Mg
0.666667 0.083333 0.718750 Mg
0.666667 0.083333 0.843750 Mg
0.666667 0.083333 0.968750 Mg
0.666667 0.208333 0.093750 Mg
0.666667 0.208333 0.218750 Mg
0.666667 0.208333 0.343750 Mg
0.666667 0.208333 0.468750 Mg
0.666667 0.208333 0.593750 Mg
0.666667 0.208333 0.718750 Mg
0.666667 0.208333 0.843750 Mg
0.666667 0.208333 0.968750 Mg
0.666667 0.333333 0.093750 Mg
0.666667 0.333333 0.218750 Mg
0.666667 0.333333 0.343750 Mg
0.666667 0.333333 0.468750 Mg
0.666667 0.333333 0.593750 Mg
0.666667 0.333333 0.718750 Mg
0.666667 0.333333 0.843750 Mg
0.666667 0.333333 0.968750 Mg
0.666667 0.458333 0.093750 Mg
0.666667 0.458333 0.218750 Mg
0.666667 0.458333 0.343750 Mg
0.666667 0.458333 0.468750 Mg
0.666667 0.458333 0.593750 Mg
0.666667 0.458333 0.718750 Mg
0.666667 0.458333 0.843750 Mg
0.666667 0.458333 0.968750 Mg
0.666667 0.583333 0.093750 Mg
0.666667 0.583333 0.218750 Mg
0.666667 0.583333 0.343750 Mg
0.666667 0.583333 0.468750 Mg
0.666667 0.583333 0.593750 Mg
0.666667 0.583333 0.718750 Mg
0.666667 0.583333 0.843750 Mg
0.666667 0.583333 0.968750 Mg
0.666667 0.708333 0.093750 Mg
0.666667 0.708333 0.218750 Mg
0.666667 0.708333 0.343750 Mg
0.666667 0.708333 0.468750 Mg
0.666667 0.708333 0.593750 Mg
0.666667 0.708333 0.718750 Mg
0.666667 0.708333 0.843750 Mg
0.666667 0.708333 0.968750 Mg
0.666667 0.833333 0.093750 Mg
0.666667 0.833333 0.218750 Mg
0.666667 0.833333 0.343750 Mg
0.666667 0.833333 0.468750 Mg
0.666667 0.833333 0.593750 Mg
0.666667 0.833333 0.718750 Mg
0.666667 0.833333 0.843750 Mg
0.666667 0.833333 0.968750 Mg
0.666667 0.958333 0.093750 Mg
0.666667 0.958333 0.218750 Mg
0.666667 0.958333 0.343750 Mg
0.666667 0.958333 0.468750 Mg
0.666667 0.958333 0.593750 Mg
0.666667 0.958333 0.718750 Mg
0.666667 0.958333 0.843750 Mg
0.666667 0.958333 0.968750 Mg
0.791667 0.083333 0.093750 Mg
0.791667 0.083333 0.218750 Mg
0.791667 0.083333 0.343750 Mg
0.791667 0.083333 0.468750 Mg
0.791667 0.083333 0.593750 Mg
0.791667 0.083333 0.718750 Mg
0.791667 0.083333 0.843750 Mg
0.791667 0.083333 0.968750 Mg
0.791667 0.208333 0.093750 Mg
0.791667 0.208333 0.218750 Mg
0.791667 0.208333 0.343750 Mg
0.791667 0.208333 0.468750 Mg
0.791667 0.208333 0.593750 Mg
0.791667 0.208333 0.718750 Mg
0.791667 0.208333 0.843750 Mg
0.791667 0.208333 0.968750 Mg
0.791667 0.333333 0.093750 Mg
0.791667 0.333333 0.218750 Mg
0.791667 0.333333 0.343750 Mg
0.791667 0.333333 0.468750 Mg
0.791667 0.333333 0.593750 Mg
0.791667 0.333333 0.718750 Mg
0.791667 0.333333 0.843750 Mg
0.791667 0.333333 0.968750 Mg
0.791667 0.458333 0.093750 Mg
0.791667 0.458333 0.218750 Mg
0.791667 0.458333 0.343750 Mg
0.791667 0.458333 0.468750 Mg
0.791667 0.458333 0.593750 Mg
0.791667 0.458333 0.718750 Mg
0.791667 0.458333 0.843750 Mg
0.791667 0.458333 0.968750 Mg
0.791667 0.583333 0.093750 Mg
0.791667 0.583333 0.218750 Mg
0.791667 0.583333 0.343750 Mg
0.791667 0.583333 0.468750 Mg
0.791667 0.583333 0.593750 Mg
0.791667 0.583333 0.718750 Mg
0.791667 0.583333 0.843750 Mg
0.791667 0.583333 0.968750 Mg
0.791667 0.708333 0.093750 Mg
0.791667 0.708333 0.218750 Mg
0.791667 0.708333 0.343750 Mg
0.791667 0.708333 0.468750 Mg
0.791667 0.708333 0.593750 Mg
0.791667 0.708333 0.718750 Mg
0.791667 0.708333 0.843750 Mg
0.791667 0.708333 0.968750 Mg
0.791667 0.833333 0.093750 Mg
0.791667 0.833333 0.218750 Mg
0.791667 0.833333 0.343750 Mg
0.791667 0.833333 0.468750 Mg
0.791667 0.833333 0.593750 Mg
0.791667 0.833333 0.718750 Mg
0.791667 0.833333 0.843750 Mg
0.791667 0.833333 0.968750 Mg
0.791667 0.958333 0.093750 Mg
0.791667 0.958333 0.218750 Mg
0.791667 0.958333 0.343750 Mg
0.791667 0.958333 0.468750 Mg
0.791667 0.958333 0.593750 Mg
0.791667 0.958333 0.718750 Mg
0.791667 0.958333 0.843750 Mg
0.791667 0.958333 0.968750 Mg
0.916667 0.083333 0.093750 Mg
0.916667 0.083333 0.218750 Mg
0.916667 0.083333 0.343750 Mg
0.916667 0.083333 0.468750 Mg
0.916667 0.083333 0.593750 Mg
0.916667 0.083333 0.718750 Mg
0.916667 0.083333 0.843750 Mg
0.916667 0.083333 0.968750 Mg
0.916667 0.208333 0.093750 Mg
0.916667 0.208333 0.218750 Mg
0.916667 0.208333 0.343750 Mg
0.916667 0.208333 0.468750 Mg
0.916667 0.208333 0.593750 Mg
0.916667 0.208333 0.718750 Mg
0.916667 0.208333 0.843750 Mg
0.916667 0.208333 0.968750 Mg
0.916667 0.333333 0.093750 Mg
0.916667 0.333333 0.218750 Mg
0.916667 0.333333 0.343750 Mg
0.916667 0.333333 0.468750 Mg
0.916667 0.333333 0.593750 Mg
0.916667 0.333333 0.718750 Mg
0.916667 0.333333 0.843750 Mg
0.916667 0.333333 0.968750 Mg
0.916667 0.458333 0.093750 Mg
0.916667 0.458333 0.218750 Mg
0.916667 0.458333 0.343750 Mg
0.916667 0.458333 0.468750 Mg
0.916667 0.458333 0.593750 Mg
0.916667 0.458333 0.718750 Mg
0.916667 0.458333 0.843750 Mg
0.916667 0.458333 0.968750 Mg
0.916667 0.583333 0.093750 Mg
0.916667 0.583333 0.218750 Mg
0.916667 0.583333 0.343750 Mg
0.916667 0.583333 0.468750 Mg
0.916667 0.583333 0.593750 Mg
0.916667 0.583333 0.718750 Mg
0.916667 0.583333 0.843750 Mg
0.916667 0.583333 0.968750 Mg
0.916667 0.708333 0.093750 Mg
0.916667 0.708333 0.218750 Mg
0.916667 0.708333 0.343750 Mg
0.916667 0.708333 0.468750 Mg
0.916667 0.708333 0.593750 Mg
0.916667 0.708333 0.718750 Mg
0.916667 0.708333 0.843750 Mg
0.916667 0.708333 0.968750 Mg
0.916667 0.833333 0.093750 Mg
0.916667 0.833333 0.218750 Mg
0.916667 0.833333 0.343750 Mg
0.916667 0.833333 0.468750 Mg
0.916667 0.833333 0.593750 Mg
0.916667 0.833333 0.718750 Mg
0.916667 0.833333 0.843750 Mg
0.916667 0.833333 0.968750 Mg
0.916667 0.958333 0.093750 Mg
0.916667 0.958333 0.218750 Mg
0.916667 0.958333 0.343750 Mg
0.916667 0.958333 0.468750 Mg
0.916667 0.958333 0.593750 Mg
0.916667 0.958333 0.718750 Mg
0.916667 0.958333 0.843750 Mg
0.916667 0.958333 0.968750 Mg
0.083333 0.041667 0.031250 Mg
0.083333 0.041667 0.156250 Mg
0.083333 0.041667 0.281250 Mg
0.083333 0.041667 0.406250 Mg
0.083333 0.041667 0.531250 Mg
0.083333 0.041667 0.656250 Mg
0.083333 0.041667 0.781250 Mg
0.083333 0.041667 0.906250 Mg
0.083333 0.166667 0.031250 Mg
0.083333 0.166667 0.156250 Mg
0.083333 0.166667 0.281250 Mg
0.083333 0.166667 0.406250 Mg
0.083333 0.166667 0.531250 Mg
0.083333 0.166667 0.656250 Mg
0.083333 0.166667 0.781250 Mg
0.083333 0.166667 0.906250 Mg
0.083333 0.291667 0.031250 Mg
0.083333 0.291667 0.156250 Mg
0.083333 0.291667 0.281250 Mg
0.083333 0.291667 0.406250 Mg
0.083333 0.291667 0.531250 Mg
0.083333 0.291667 0.656250 Mg
0.083333 0.291667 0.781250 Mg
0.083333 0.291667 0.906250 Mg
0.083333 0.416667 0.031250 Mg
0.083333 0.416667 0.156250 Mg
0.083333 0.416667 0.281250 Mg
0.083333 0.416667 0.406250 Mg
0.083333 0.416667 0.531250 Mg
0.083333 0.416667 0.656250 Mg
0.083333 0.416667 0.781250 Mg
0.083333 0.416667 0.906250 Mg
0.083333 0.541667 0.031250 Mg
0.083333 0.541667 0.156250 Mg
0.083333 0.541667 0.281250 Mg
0.083333 0.541667 0.406250 Mg
0.083333 0.541667 0.531250 Mg
0.083333 0.541667 0.656250 Mg
0.083333 0.541667 0.781250 Mg
0.083333 0.541667 0.906250 Mg
0.083333 0.666667 0.031250 Mg
0.083333 0.666667 0.156250 Mg
0.083333 0.666667 0.281250 Mg
0.083333 0.666667 0.406250 Mg
0.083333 0.666667 0.531250 Mg
0.083333 0.666667 0.656250 Mg
0.083333 0.666667 0.781250 Mg
0.083333 0.666667 0.906250 Mg
0.083333 0.791667 0.031250 Mg
0.083333 0.791667 0.156250 Mg
0.083333 0.791667 0.281250 Mg
0.083333 0.791667 0.406250 Mg
0.083333 0.791667 0.531250 Mg
0.083333 0.791667 0.656250 Mg
0.083333 0.791667 0.781250 Mg
0.083333 0.791667 0.906250 Mg
0.083333 0.916667 0.031250 Mg
0.083333 0.916667 0.156250 Mg
0.083333 0.916667 0.281250 Mg
0.083333 0.916667 0.406250 Mg
0.083333 0.916667 0.531250 Mg
0.083333 0.916667 0.656250 Mg
0.083333 0.916667 0.781250 Mg
0.083333 0.916667 0.906250 Mg
0.208333 0.041667 0.031250 Mg
0.208333 0.041667 0.156250 Mg
0.208333 0.041667 0.281250 Mg
0.208333 0.041667 0.406250 Mg
0.208333 0.041667 0.531250 Mg
0.208333 0.041667 0.656250 Mg
0.208333 0.041667 0.781250 Mg
0.208333 0.041667 0.906250 Mg
0.208333 0.166667 0.031250 Mg
0.208333 0.166667 0.156250 Mg
0.208333 0.166667 0.281250 Mg
0.208333 0.166667 0.406250 Mg
0.208333 0.166667 0.531250 Mg
0.208333 0.166667 0.656250 Mg
0.208333 0.166667 0.781250 Mg
0.208333 0.166667 0.906250 Mg
0.208333 0.291667 0.031250 Mg
0.208333 0.291667 0.156250 Mg
0.208333 0.291667 0.281250 Mg
0.208333 0.291667 0.406250 Mg
0.208333 0.291667 0.531250 Mg
0.208333 0.291667 0.656250 Mg
0.208333 0.291667 0.781250 Mg
0.208333 0.291667 0.906250 Mg
0.208333 0.416667 0.031250 Mg
0.208333 0.416667 0.156250 Mg
0.208333 0.416667 0.281250 Mg
0.208333 0.416667 0.406250 Mg
0.208333 0.416667 0.531250 Mg
0.208333 0.416667 0.656250 Mg
0.208333 0.416667 0.781250 Mg
0.208333 0.416667 0.906250 Mg
0.208333 0.541667 0.031250 Mg
0.208333 0.541667 0.156250 Mg
0.208333 0.541667 0.281250 Mg
0.208333 0.541667 0.406250 Mg
0.208333 0.541667 0.531250 Mg
0.208333 0.541667 0.656250 Mg
0.208333 0.541667 0.781250 Mg
0.208333 0.541667 0.906250 Mg
0.208333 0.666667 0.031250 Mg
0.208333 0.666667 0.156250 Mg
0.208333 0.666667 0.281250 Mg
0.208333 0.666667 0.406250 Mg
0.208333 0.666667 0.531250 Mg
0.208333 0.666667 0.656250 Mg
0.208333 0.666667 0.781250 Mg
0.208333 0.666667 0.906250 Mg
0.208333 0.791667 0.031250 Mg
0.208333 0.791667 0.156250 Mg
0.208333 0.791667 0.281250 Mg
0.208333 0.791667 0.406250 Mg
0.208333 0.791667 0.531250 Mg
0.208333 0.791667 0.656250 Mg
0.208333 0.791667 0.781250 Mg
0.208333 0.791667 0.906250 Mg
0.208333 0.916667 0.031250 Mg
0.208333 0.916667 0.156250 Mg
0.208333 0.916667 0.281250 Mg
0.208333 0.916667 0.406250 Mg
0.208333 0.916667 0.531250 Mg
0.208333 0.916667 0.656250 Mg
0.208333 0.916667 0.781250 Mg
0.208333 0.916667 0.906250 Mg
0.333333 0.041667 0.031250 Mg
0.333333 0.041667 0.156250 Mg
0.333333 0.041667 0.281250 Mg
0.333333 0.041667 0.406250 Mg
0.333333 0.041667 0.531250 Mg
0.333333 0.041667 0.656250 Mg
0.333333 0.041667 0.781250 Mg
0.333333 0.041667 0.906250 Mg
0.333333 0.166667 0.031250 Mg
0.333333 0.166667 0.156250 Mg
0.333333 0.166667 0.281250 Mg
0.333333 0.166667 0.406250 Mg
0.333333 0.166667 0.531250 Mg
0.333333 0.166667 0.656250 Mg
0.333333 0.166667 0.781250 Mg
0.333333 0.166667 0.906250 Mg
0.333333 0.291667 0.031250 Mg
0.333333 0.291667 0.156250 Mg
0.333333 0.291667 0.281250 Mg
0.333333 0.291667 0.406250 Mg
0.333333 0.291667 0.531250 Mg
0.333333 0.291667 0.656250 Mg
0.333333 0.291667 0.781250 Mg
0.333333 0.291667 0.906250 Mg
0.333333 0.416667 0.031250 Mg
0.333333 0.416667 0.156250 Mg
0.333333 0.416667 0.281250 Mg
0.333333 0.416667 0.406250 Mg
0.333333 0.416667 0.531250 Mg
0.333333 0.416667 0.656250 Mg
0.333333 0.416667 0.781250 Mg
0.333333 0.416667 0.906250 Mg
0.333333 0.541667 0.031250 Mg
0.333333 0.541667 0.156250 Mg
0.333333 0.541667 0.281250 Mg
0.333333 0.541667 0.406250 Mg
0.333333 0.541667 0.531250 Mg
0.333333 0.541667 0.656250 Mg
0.333333 0.541667 0.781250 Mg
0.333333 0.541667 0.906250 Mg
0.333333 0.666667 0.031250 Mg
0.333333 0.666667 0.156250 Mg
0.333333 0.666667 0.281250 Mg
0.333333 0.666667 0.406250 Mg
0.333333 0.666667 0.531250 Mg
0.333333 0.666667 0.656250 Mg
0.333333 0.666667 0.781250 Mg
0.333333 0.666667 0.906250 Mg
0.333333 0.791667 0.031250 Mg
0.333333 0.791667 0.156250 Mg
0.333333 0.791667 0.281250 Mg
0.333333 0.791667 0.406250 Mg
0.333333 0.791667 0.531250 Mg
0.333333 0.791667 0.656250 Mg
0.333333 0.791667 0.781250 Mg
0.333333 0.791667 0.906250 Mg
0.333333 0.916667 0.031250 Mg
0.333333 0.916667 0.156250 Mg
0.333333 0.916667 0.281250 Mg
0.333333 0.916667 0.406250 Mg
0.333333 0.916667 0.531250 Mg
0.333333 0.916667 0.656250 Mg
0.333333 0.916667 0.781250 Mg
0.333333 0.916667 0.906250 Mg
0.458333 0.041667 0.031250 Mg
0.458333 0.041667 0.156250 Mg
0.458333 0.041667 0.281250 Mg
0.458333 0.041667 0.406250 Mg
0.458333 0.041667 0.531250 Mg
0.458333 0.041667 0.656250 Mg
0.458333 0.041667 0.781250 Mg
0.458333 0.041667 0.906250 Mg
0.458333 0.166667 0.031250 Mg
0.458333 0.166667 0.156250 Mg
0.458333 0.166667 0.281250 Mg
0.458333 0.166667 0.406250 Mg
0.458333 0.166667 0.531250 Mg
0.458333 0.166667 0.656250 Mg
0.458333 0.166667 0.781250 Mg
0.458333 0.166667 0.906250 Mg
0.458333 0.291667 0.031250 Mg
0.458333 0.291667 0.156250 Mg
0.458333 0.291667 0.281250 Mg
0.458333 0.291667 0.406250 Mg
0.458333 0.291667 0.531250 Mg
0.458333 0.291667 0.656250 Mg
0.458333 0.291667 0.781250 Mg
0.458333 0.291667 0.906250 Mg
0.458333 0.416667 0.031250 Mg
0.458333 0.416667 0.156250 Mg
0.458333 0.416667 0.281250 Mg
0.458333 0.416667 0.406250 Mg
0.458333 0.416667 0.531250 Mg
0.458333 0.416667 0.656250 Mg
0.458333 0.416667 0.781250 Mg
0.458333 0.416667 0.906250 Mg
0.458333 0.541667 0.031250 Mg
0.458333 0.541667 0.156250 Mg
0.458333 0.541667 0.281250 Mg
0.458333 0.541667 0.406250 Mg
0.458333 0.541667 0.531250 Mg
0.458333 0.541667 0.656250 Mg
0.458333 0.541667 0.781250 Mg
0.458333 0.541667 0.906250 Mg
0.458333 0.666667 0.031250 Mg
0.458333 0.666667 0.156250 Mg
0.458333 0.666667 0.281250 Mg
0.458333 0.666667 0.406250 Mg
0.458333 0.666667 0.531250 Mg
0.458333 0.666667 0.656250 Mg
0.458333 0.666667 0.781250 Mg
0.458333 0.666667 0.906250 Mg
0.458333 0.791667 0.031250 Mg
0.458333 0.791667 0.156250 Mg
0.458333 0.791667 0.281250 Mg
0.458333 0.791667 0.406250 Mg
0.458333 0.791667 0.531250 Mg
0.458333 0.791667 0.656250 Mg
0.458333 0.791667 0.781250 Mg
0.458333 0.791667 0.906250 Mg
0.458333 0.916667 0.031250 Mg
0.458333 0.916667 0.156250 Mg
0.458333 0.916667 0.281250 Mg
0.458333 0.916667 0.406250 Mg
0.458333 0.916667 0.531250 Mg
0.458333 0.916667 0.656250 Mg
0.458333 0.916667 0.781250 Mg
0.458333 0.916667 0.906250 Mg
0.583333 0.041667 0.031250 Mg
0.583333 0.041667 0.156250 Mg
0.583333 0.041667 0.281250 Mg
0.583333 0.041667 0.406250 Mg
0.583333 0.041667 0.531250 Mg
0.583333 0.041667 0.656250 Mg
0.583333 0.041667 0.781250 Mg
0.583333 0.041667 0.906250 Mg
0.583333 0.166667 0.031250 Mg
0.583333 0.166667 0.156250 Mg
0.583333 0.166667 0.281250 Mg
0.583333 0.166667 0.406250 Mg
0.583333 0.166667 0.531250 Mg
0.583333 0.166667 0.656250 Mg
0.583333 0.166667 0.781250 Mg
0.583333 0.166667 0.906250 Mg
0.583333 0.291667 0.031250 Mg
0.583333 0.291667 0.156250 Mg
0.583333 0.291667 0.281250 Mg
0.583333 0.291667 0.406250 Mg
0.583333 0.291667 0.531250 Mg
0.583333 0.291667 0.656250 Mg
0.583333 0.291667 0.781250 Mg
0.583333 0.291667 0.906250 Mg
0.583333 0.416667 0.031250 Mg
0.583333 0.416667 0.156250 Mg
0.583333 0.416667 0.281250 Mg
0.583333 0.416667 0.406250 Mg
0.583333 0.416667 0.531250 Mg
0.583333 0.416667 0.656250 Mg
0.583333 0.416667 0.781250 Mg
0.583333 0.416667 0.906250 Mg
0.583333 0.541667 0.031250 Mg
0.583333 0.541667 0.156250 Mg
0.583333 0.541667 0.281250 Mg
0.583333 0.541667 0.406250 Mg
0.583333 0.541667 0.531250 Mg
0.583333 0.541667 0.656250 Mg
0.583333 0.541667 0.781250 Mg
0.583333 0.541667 0.906250 Mg
0.583333 0.666667 0.031250 Mg
0.583333 0.666667 0.156250 Mg
0.583333 0.666667 0.281250 Mg
0.583333 0.666667 0.406250 Mg
0.583333 0.666667 0.531250 Mg
0.583333 0.666667 0.656250 Mg
0.583333 0.666667 0.781250 Mg
0.583333 0.666667 0.906250 Mg
0.583333 0.791667 0.031250 Mg
0.583333 0.791667 0.156250 Mg
0.583333 0.791667 0.281250 Mg
0.583333 0.791667 0.406250 Mg
0.583333 0.791667 0.531250 Mg
0.583333 0.791667 0.656250 Mg
0.583333 0.791667 0.781250 Mg
0.583333 0.791667 0.906250 Mg
0.583333 0.916667 0.031250 Mg
0.583333 0.916667 0.156250 Mg
0.583333 0.916667 0.281250 Mg
0.583333 0.916667 0.406250 Mg
0.583333 0.916667 0.531250 Mg
0.583333 0.916667 0.656250 Mg
0.583333 0.916667 0.781250 Mg
0.583333 0.916667 0.906250 Mg
0.708333 0.041667 0.031250 Mg
0.708333 0.041667 0.156250 Mg
0.708333 0.041667 0.281250 Mg
0.708333 0.041667 0.406250 Mg
0.708333 0.041667 0.531250 Mg
0.708333 0.041667 0.656250 Mg
0.708333 0.041667 0.781250 Mg
0.708333 0.041667 0.906250 Mg
0.708333 0.166667 0.031250 Mg
0.708333 0.166667 0.156250 Mg
0.708333 0.166667 0.281250 Mg
0.708333 0.166667 0.406250 Mg
0.708333 0.166667 0.531250 Mg
0.708333 0.166667 0.656250 Mg
0.708333 0.166667 0.781250 Mg
0.708333 0.166667 0.906250 Mg
0.708333 0.291667 0.031250 Mg
0.708333 0.291667 0.156250 Mg
0.708333 0.291667 0.281250 Mg
0.708333 0.291667 0.406250 Mg
0.708333 0.291667 0.531250 Mg
0.708333 0.291667 0.656250 Mg
0.708333 0.291667 0.781250 Mg
0.708333 0.291667 0.906250 Mg
0.708333 0.416667 0.031250 Mg
0.708333 0.416667 0.156250 Mg
0.708333 0.416667 0.281250 Mg
0.708333 0.416667 0.406250 Mg
0.708333 0.416667 0.531250 Mg
0.708333 0.416667 0.656250 Mg
0.708333 0.416667 0.781250 Mg
0.708333 0.416667 0.906250 Mg
0.708333 0.541667 0.031250 Mg
0.708333 0.541667 0.156250 Mg
0.708333 0.541667 0.281250 Mg
0.708333 0.541667 0.406250 Mg
0.708333 0.541667 0.531250 Mg
0.708333 0.541667 0.656250 Mg
0.708333 0.541667 0.781250 Mg
0.708333 0.541667 0.906250 Mg
0.708333 0.666667 0.031250 Mg
0.708333 0.666667 0.156250 Mg
0.708333 0.666667 0.281250 Mg
0.708333 0.666667 0.406250 Mg
0.708333 0.666667 0.531250 Mg
0.708333 0.666667 0.656250 Mg
0.708333 0.666667 0.781250 Mg
0.708333 0.666667 0.906250 Mg
0.708333 0.791667 0.031250 Mg
0.708333 0.791667 0.156250 Mg
0.708333 0.791667 0.281250 Mg
0.708333 0.791667 0.406250 Mg
0.708333 0.791667 0.531250 Mg
0.708333 0.791667 0.656250 Mg
0.708333 0.791667 0.781250 Mg
0.708333 0.791667 0.906250 Mg
0.708333 0.916667 0.031250 Mg
0.708333 0.916667 0.156250 Mg
0.708333 0.916667 0.281250 Mg
0.708333 0.916667 0.406250 Mg
0.708333 0.916667 0.531250 Mg
0.708333 0.916667 0.656250 Mg
0.708333 0.916667 0.781250 Mg
0.708333 0.916667 0.906250 Mg
0.833333 0.041667 0.031250 Mg
0.833333 0.041667 0.156250 Mg
0.833333 0.041667 0.281250 Mg
0.833333 0.041667 0.406250 Mg
0.833333 0.041667 0.531250 Mg
0.833333 0.041667 0.656250 Mg
0.833333 0.041667 0.781250 Mg
0.833333 0.041667 0.906250 Mg
0.833333 0.166667 0.031250 Mg
0.833333 0.166667 0.156250 Mg
0.833333 0.166667 0.281250 Mg
0.833333 0.166667 0.406250 Mg
0.833333 0.166667 0.531250 Mg
0.833333 0.166667 0.656250 Mg
0.833333 0.166667 0.781250 Mg
0.833333 0.166667 0.906250 Mg
0.833333 0.291667 0.031250 Mg
0.833333 0.291667 0.156250 Mg
0.833333 0.291667 0.281250 Mg
0.833333 0.291667 0.406250 Mg
0.833333 0.291667 0.531250 Mg
0.833333 0.291667 0.656250 Mg
0.833333 0.291667 0.781250 Mg
0.833333 0.291667 0.906250 Mg
0.833333 0.416667 0.031250 Mg
0.833333 0.416667 0.156250 Mg
0.833333 0.416667 0.281250 Mg
0.833333 0.416667 0.406250 Mg
0.833333 0.416667 0.531250 Mg
0.833333 0.416667 0.656250 Mg
0.833333 0.416667 0.781250 Mg
0.833333 0.416667 0.906250 Mg
0.833333 0.541667 0.031250 Mg
0.833333 0.541667 0.156250 Mg
0.833333 0.541667 0.281250 Mg
0.833333 0.541667 0.406250 Mg
0.833333 0.541667 0.531250 Mg
0.833333 0.541667 0.656250 Mg
0.833333 0.541667 0.781250 Mg
0.833333 0.541667 0.906250 Mg
0.833333 0.666667 0.031250 Mg
0.833333 0.666667 0.156250 Mg
0.833333 0.666667 0.281250 Mg
0.833333 0.666667 0.406250 Mg
0.833333 0.666667 0.531250 Mg
0.833333 0.666667 0.656250 Mg
0.833333 0.666667 0.781250 Mg
0.833333 0.666667 0.906250 Mg
0.833333 0.791667 0.031250 Mg
0.833333 0.791667 0.156250 Mg
0.833333 0.791667 0.281250 Mg
0.833333 0.791667 0.406250 Mg
0.833333 0.791667 0.531250 Mg
0.833333 0.791667 0.656250 Mg
0.833333 0.791667 0.781250 Mg
0.833333 0.791667 0.906250 Mg
0.833333 0.916667 0.031250 Mg
0.833333 0.916667 0.156250 Mg
0.833333 0.916667 0.281250 Mg
0.833333 0.916667 0.406250 Mg
0.833333 0.916667 0.531250 Mg
0.833333 0.916667 0.656250 Mg
0.833333 0.916667 0.781250 Mg
0.833333 0.916667 0.906250 Mg
0.958333 0.041667 0.031250 Mg
0.958333 0.041667 0.156250 Mg
0.958333 0.041667 0.281250 Mg
0.958333 0.041667 0.406250 Mg
0.958333 0.041667 0.531250 Mg
0.958333 0.041667 0.656250 Mg
0.958333 0.041667 0.781250 Mg
0.958333 0.041667 0.906250 Mg
0.958333 0.166667 0.031250 Mg
0.958333 0.166667 0.156250 Mg
0.958333 0.166667 0.281250 Mg
0.958333 0.166667 0.406250 Mg
0.958333 0.166667 0.531250 Mg
0.958333 0.166667 0.656250 Mg
0.958333 0.166667 0.781250 Mg
0.958333 0.166667 0.906250 Mg
0.958333 0.291667 0.031250 Mg
0.958333 0.291667 0.156250 Mg
0.958333 0.291667 0.281250 Mg
0.958333 0.291667 0.406250 Mg
0.958333 0.291667 0.531250 Mg
0.958333 0.291667 0.656250 Mg
0.958333 0.291667 0.781250 Mg
0.958333 0.291667 0.906250 Mg
0.958333 0.416667 0.031250 Mg
0.958333 0.416667 0.156250 Mg
0.958333 0.416667 0.281250 Mg
0.958333 0.416667 0.406250 Mg
0.958333 0.416667 0.531250 Mg
0.958333 0.416667 0.656250 Mg
0.958333 0.416667 0.781250 Mg
0.958333 0.416667 0.906250 Mg
0.958333 0.541667 0.031250 Mg
0.958333 0.541667 0.156250 Mg
0.958333 0.541667 0.281250 Mg
0.958333 0.541667 0.406250 Mg