POSCAR_02:Al                                      
1.0000000000
10.9063935957 0.0000000000 0.0000000000
0.0000000000 10.9063935957 0.0000000000
0.0000000000 0.0000000000 10.9063935957
   Al   Mg
1 106 
D
-0.0015655415 0.0055614608 0.0039959193
-0.0015655415 0.0037344394 0.3313745050
-0.0015655415 0.0020905184 0.6662917275
-0.0015655415 0.3329400465 0.0021688979
-0.0015655415 0.3328738745 0.3313083330
-0.0015655415 0.3347807899 0.6663660206
-0.0015655415 0.6678572690 0.0005249769
-0.0015655415 0.6679315621 0.3332152484
-0.0015655415 0.6678046330 0.6662390915
0.3318736828 0.0020480793 0.0004825378
0.3315024843 0.0021090261 0.3333111618
0.3318246293 0.0018690494 0.6661274842
0.3315024843 0.3348767033 0.0005434846
0.3310935433 0.3345641631 0.3329986216
0.3316229922 0.3350043202 0.6662947022
0.3318246293 0.6676930257 0.0003035079
0.3316229922 0.6678602437 0.3334387787
0.3317390608 0.6679174372 0.6663518957
0.6649952342 0.0020480793 0.0004825378
0.6653664327 0.0021090261 0.3333111618
0.6650442877 0.0018690494 0.6661274842
0.6653664327 0.3348767033 0.0005434846
0.6657753737 0.3345641631 0.3329986216
0.6652459249 0.3350043202 0.6662947022
0.6650442877 0.6676930257 0.0003035079
0.6652459249 0.6678602437 0.3334387787
0.6651298563 0.6679174372 0.6663518957
0.1649187742 0.0032383639 0.1675598034
-0.0015655415 0.1684359380 0.4988040936
-0.0015655415 0.1689686727 0.8342680566
-0.0015655415 0.5003696351 0.1668703965
-0.0015655415 0.5010536082 0.4994880667
-0.0015655415 0.5012425639 0.8334778928
-0.0015655415 0.8358335981 0.1674031312
-0.0015655415 0.8350434343 0.4996770224
-0.0015655415 0.8349760516 0.8334105101
0.3311581886 0.1686546329 0.1670890914
0.3315817333 0.1685018156 0.4996998656
0.3321049465 0.1686910465 0.8329639950
0.3315817333 0.5012654071 0.1669362741
0.3315416546 0.5011795697 0.4996140282
0.3316833617 0.5012795261 0.8334549599
0.3321049465 0.8345295365 0.1671255051
0.3316833617 0.8350205014 0.4997139847
0.3318712582 0.8348162335 0.8332506920
0.6657107285 0.1686546329 0.1670890914
0.6652871837 0.1685018156 0.4996998656
0.6647639706 0.1686910465 0.8329639950
0.6652871837 0.5012654071 0.1669362741
0.6653272624 0.5011795697 0.4996140282
0.6651855553 0.5012795261 0.8334549599
0.6647639706 0.8345295365 0.1671255051
0.6651855553 0.8350205014 0.4997139847
0.6649976588 0.8348162335 0.8332506920
0.1646970665 0.0021362118 0.4991101511
0.1655508081 0.0020282500 0.8331870876
0.1634823238 0.3331410096 0.1668904017
0.1646343380 0.3344942867 0.4990949524
0.1649830962 0.3347634918 0.8337317655
0.1648820913 0.6679977903 0.1670537081
0.1649543912 0.6679252647 0.4995856346
0.1651583915 0.6678678033 0.8333426328
0.4984344585 0.0020219198 0.1670559506
0.4984344585 0.0019230388 0.4996243192
0.4984344585 0.0018456830 0.8333184174
0.4984344585 0.3347964420 0.1669640220
0.4984344585 0.3348400148 0.4994975881
0.4984344585 0.3350563300 0.8335037882
0.4984344585 0.6677122931 0.1669760065
0.4984344585 0.6680018302 0.4997629563
0.4984344585 0.6679153621 0.8333584694
0.8319501428 0.0032383639 0.1675598034
0.8321718505 0.0021362118 0.4991101511
0.8313181089 0.0020282500 0.8331870876
0.8333865933 0.3331410096 0.1668904017
0.8322345791 0.3344942867 0.4990949524
0.8318858208 0.3347634918 0.8337317655
0.8319868258 0.6679977903 0.1670537081
0.8319145259 0.6679252647 0.4995856346
0.8317105255 0.6678678033 0.8333426328
0.1649187742 0.1691253449 0.0016728224
0.1634823238 0.1684559432 0.3315754681
0.1648820913 0.1686192495 0.6664322488
0.1646970665 0.5006756926 0.0005706703
0.1646343380 0.5006604939 0.3329287452
0.1649543912 0.5011511761 0.6663597232
0.1655508081 0.8347526291 0.0004627086
0.1649830962 0.8352973070 0.3331979503
0.1651583915 0.8349081743 0.6663022618
0.4984344585 0.1686214921 0.0004563783
0.4984344585 0.1685295635 0.3332309005
0.4984344585 0.1685415480 0.6661467516
0.4984344585 0.5011898606 0.0003574973
0.4984344585 0.5010631296 0.3332744733
0.4984344585 0.5013284977 0.6664362887
0.4984344585 0.8348839588 0.0002801415
0.4984344585 0.8350693297 0.3334907885
0.4984344585 0.8349240109 0.6663498206
0.8319501428 0.1691253449 0.0016728224
0.8333865933 0.1684559432 0.3315754681
0.8319868258 0.1686192495 0.6664322488
0.8321718505 0.5006756926 0.0005706703
0.8322345791 0.5006604939 0.3329287452
0.8319145259 0.5011511761 0.6663597232
0.8313181089 0.8347526291 0.0004627086
0.8318858208 0.8352973070 0.3331979503
0.8317105255 0.8349081743 0.6663022618
