Sr1 La62 Mn62 Cr2 Fe2 Ni1 O191
1.0
15.758645 0.000000 0.000000
0.000000 15.758645 0.000000
0.000000 0.000000 15.758645
Sr La Mn Cr Fe Ni O
1 62 62 2 2 1 191
direct
0.250000 0.250000 0.000000 Sr
0.000000 0.000000 0.000000 La
0.000000 0.000000 0.500000 La
0.000000 0.500000 0.000000 La
0.000000 0.500000 0.500000 La
0.500000 0.000000 0.000000 La
0.500000 0.000000 0.500000 La
0.500000 0.500000 0.000000 La
0.500000 0.500000 0.500000 La
0.000000 0.000000 0.750000 La
0.000000 0.500000 0.250000 La
0.000000 0.500000 0.750000 La
0.500000 0.000000 0.250000 La
0.500000 0.000000 0.750000 La
0.500000 0.500000 0.250000 La
0.500000 0.500000 0.750000 La
0.000000 0.250000 0.000000 La
0.000000 0.250000 0.500000 La
0.000000 0.750000 0.000000 La
0.000000 0.750000 0.500000 La
0.500000 0.250000 0.000000 La
0.500000 0.250000 0.500000 La
0.500000 0.750000 0.000000 La
0.500000 0.750000 0.500000 La
0.000000 0.250000 0.250000 La
0.000000 0.250000 0.750000 La
0.000000 0.750000 0.250000 La
0.000000 0.750000 0.750000 La
0.500000 0.250000 0.250000 La
0.500000 0.250000 0.750000 La
0.500000 0.750000 0.250000 La
0.500000 0.750000 0.750000 La
0.250000 0.000000 0.000000 La
0.250000 0.000000 0.500000 La
0.250000 0.500000 0.000000 La
0.250000 0.500000 0.500000 La
0.750000 0.000000 0.000000 La
0.750000 0.000000 0.500000 La
0.750000 0.500000 0.000000 La
0.750000 0.500000 0.500000 La
0.250000 0.000000 0.250000 La
0.250000 0.000000 0.750000 La
0.250000 0.500000 0.250000 La
0.250000 0.500000 0.750000 La
0.750000 0.000000 0.250000 La
0.750000 0.000000 0.750000 La
0.750000 0.500000 0.250000 La
0.750000 0.500000 0.750000 La
0.250000 0.250000 0.500000 La
0.250000 0.750000 0.000000 La
0.250000 0.750000 0.500000 La
0.750000 0.250000 0.000000 La
0.750000 0.250000 0.500000 La
0.750000 0.750000 0.000000 La
0.750000 0.750000 0.500000 La
0.250000 0.250000 0.250000 La
0.250000 0.250000 0.750000 La
0.250000 0.750000 0.250000 La
0.250000 0.750000 0.750000 La
0.750000 0.250000 0.250000 La
0.750000 0.250000 0.750000 La
0.750000 0.750000 0.250000 La
0.750000 0.750000 0.750000 La
0.125000 0.125000 0.625000 Mn
0.125000 0.625000 0.125000 Mn
0.125000 0.625000 0.625000 Mn
0.625000 0.125000 0.125000 Mn
0.625000 0.125000 0.625000 Mn
0.625000 0.625000 0.125000 Mn
0.625000 0.625000 0.625000 Mn
0.125000 0.125000 0.375000 Mn
0.125000 0.125000 0.875000 Mn
0.125000 0.625000 0.375000 Mn
0.125000 0.625000 0.875000 Mn
0.625000 0.125000 0.375000 Mn
0.625000 0.125000 0.875000 Mn
0.625000 0.625000 0.375000 Mn
0.625000 0.625000 0.875000 Mn
0.125000 0.375000 0.125000 Mn
0.125000 0.375000 0.625000 Mn
0.125000 0.875000 0.125000 Mn
0.125000 0.875000 0.625000 Mn
0.625000 0.375000 0.125000 Mn
0.625000 0.375000 0.625000 Mn
0.625000 0.875000 0.125000 Mn
0.625000 0.875000 0.625000 Mn
0.125000 0.375000 0.875000 Mn
0.125000 0.875000 0.375000 Mn
0.125000 0.875000 0.875000 Mn
0.625000 0.375000 0.375000 Mn
0.625000 0.375000 0.875000 Mn
0.625000 0.875000 0.375000 Mn
0.625000 0.875000 0.875000 Mn
0.375000 0.125000 0.125000 Mn
0.375000 0.125000 0.625000 Mn
0.375000 0.625000 0.125000 Mn
0.375000 0.625000 0.625000 Mn
0.875000 0.125000 0.125000 Mn
0.875000 0.125000 0.625000 Mn
0.875000 0.625000 0.125000 Mn
0.875000 0.625000 0.625000 Mn
0.375000 0.125000 0.375000 Mn
0.375000 0.125000 0.875000 Mn
0.375000 0.625000 0.375000 Mn
0.375000 0.625000 0.875000 Mn
0.875000 0.125000 0.375000 Mn
0.875000 0.125000 0.875000 Mn
0.875000 0.625000 0.375000 Mn
0.875000 0.625000 0.875000 Mn
0.375000 0.375000 0.125000 Mn
0.375000 0.375000 0.625000 Mn
0.375000 0.875000 0.125000 Mn
0.375000 0.875000 0.625000 Mn
0.875000 0.375000 0.125000 Mn
0.875000 0.375000 0.625000 Mn
0.875000 0.875000 0.125000 Mn
0.875000 0.875000 0.625000 Mn
0.375000 0.375000 0.375000 Mn
0.375000 0.375000 0.875000 Mn
0.375000 0.875000 0.375000 Mn
0.375000 0.875000 0.875000 Mn
0.875000 0.375000 0.375000 Mn
0.875000 0.375000 0.875000 Mn
0.875000 0.875000 0.375000 Mn
0.875000 0.875000 0.875000 Mn
0.400000 0.350000 0.300000 Cr
0.150000 0.150000 0.100000 Cr
0.125000 0.125000 0.125000 Fe
0.125000 0.375000 0.375000 Fe
0.200000 0.050000 0.150000 Ni
0.125000 0.125000 0.000000 O
0.125000 0.125000 0.500000 O
0.125000 0.625000 0.000000 O
0.125000 0.625000 0.500000 O
0.625000 0.125000 0.000000 O
0.625000 0.125000 0.500000 O
0.625000 0.625000 0.000000 O
0.625000 0.625000 0.500000 O
0.000000 0.125000 0.125000 O
0.000000 0.125000 0.625000 O
0.000000 0.625000 0.125000 O
0.000000 0.625000 0.625000 O
0.500000 0.125000 0.125000 O
0.500000 0.125000 0.625000 O
0.500000 0.625000 0.125000 O
0.500000 0.625000 0.625000 O
0.125000 0.000000 0.125000 O
0.125000 0.000000 0.625000 O
0.125000 0.500000 0.125000 O
0.125000 0.500000 0.625000 O
0.625000 0.000000 0.125000 O
0.625000 0.000000 0.625000 O
0.625000 0.500000 0.125000 O
0.625000 0.500000 0.625000 O
0.125000 0.125000 0.250000 O
0.125000 0.125000 0.750000 O
0.125000 0.625000 0.250000 O
0.125000 0.625000 0.750000 O
0.625000 0.125000 0.250000 O
0.625000 0.125000 0.750000 O
0.625000 0.625000 0.250000 O
0.625000 0.625000 0.750000 O
0.000000 0.125000 0.375000 O
0.000000 0.125000 0.875000 O
0.000000 0.625000 0.375000 O
0.000000 0.625000 0.875000 O
0.500000 0.125000 0.375000 O
0.500000 0.125000 0.875000 O
0.500000 0.625000 0.375000 O
0.500000 0.625000 0.875000 O
0.125000 0.000000 0.375000 O
0.125000 0.000000 0.875000 O
0.125000 0.500000 0.375000 O
0.125000 0.500000 0.875000 O
0.625000 0.000000 0.375000 O
0.625000 0.000000 0.875000 O
0.625000 0.500000 0.375000 O
0.625000 0.500000 0.875000 O
0.125000 0.375000 0.000000 O
0.125000 0.375000 0.500000 O
0.125000 0.875000 0.000000 O
0.125000 0.875000 0.500000 O
0.625000 0.375000 0.000000 O
0.625000 0.375000 0.500000 O
0.625000 0.875000 0.000000 O
0.625000 0.875000 0.500000 O
0.000000 0.375000 0.125000 O
0.000000 0.375000 0.625000 O
0.000000 0.875000 0.125000 O
0.000000 0.875000 0.625000 O
0.500000 0.375000 0.125000 O
0.500000 0.375000 0.625000 O
0.500000 0.875000 0.125000 O
0.500000 0.875000 0.625000 O
0.125000 0.250000 0.125000 O
0.125000 0.250000 0.625000 O
0.125000 0.750000 0.125000 O
0.125000 0.750000 0.625000 O
0.625000 0.250000 0.125000 O
0.625000 0.250000 0.625000 O
0.625000 0.750000 0.125000 O
0.625000 0.750000 0.625000 O
0.125000 0.375000 0.250000 O
0.125000 0.375000 0.750000 O
0.125000 0.875000 0.250000 O
0.125000 0.875000 0.750000 O
0.625000 0.375000 0.250000 O
0.625000 0.375000 0.750000 O
0.625000 0.875000 0.250000 O
0.625000 0.875000 0.750000 O
0.000000 0.375000 0.375000 O
0.000000 0.375000 0.875000 O
0.000000 0.875000 0.375000 O
0.000000 0.875000 0.875000 O
0.500000 0.375000 0.375000 O
0.500000 0.375000 0.875000 O
0.500000 0.875000 0.375000 O
0.500000 0.875000 0.875000 O
0.125000 0.250000 0.375000 O
0.125000 0.250000 0.875000 O
0.125000 0.750000 0.375000 O
0.125000 0.750000 0.875000 O
0.625000 0.250000 0.375000 O
0.625000 0.250000 0.875000 O
0.625000 0.750000 0.375000 O
0.625000 0.750000 0.875000 O
0.375000 0.125000 0.000000 O
0.375000 0.125000 0.500000 O
0.375000 0.625000 0.000000 O
0.375000 0.625000 0.500000 O
0.875000 0.125000 0.000000 O
0.875000 0.125000 0.500000 O
0.875000 0.625000 0.000000 O
0.875000 0.625000 0.500000 O
0.250000 0.125000 0.125000 O
0.250000 0.125000 0.625000 O
0.250000 0.625000 0.125000 O
0.250000 0.625000 0.625000 O
0.750000 0.125000 0.125000 O
0.750000 0.125000 0.625000 O
0.750000 0.625000 0.125000 O
0.750000 0.625000 0.625000 O
0.375000 0.000000 0.125000 O
0.375000 0.000000 0.625000 O
0.375000 0.500000 0.125000 O
0.375000 0.500000 0.625000 O
0.875000 0.000000 0.125000 O
0.875000 0.000000 0.625000 O
0.875000 0.500000 0.125000 O
0.875000 0.500000 0.625000 O
0.375000 0.125000 0.250000 O
0.375000 0.125000 0.750000 O
0.375000 0.625000 0.250000 O
0.375000 0.625000 0.750000 O
0.875000 0.125000 0.250000 O
0.875000 0.125000 0.750000 O
0.875000 0.625000 0.250000 O
0.875000 0.625000 0.750000 O
0.250000 0.125000 0.875000 O
0.250000 0.625000 0.375000 O
0.250000 0.625000 0.875000 O
0.750000 0.125000 0.375000 O
0.750000 0.125000 0.875000 O
0.750000 0.625000 0.375000 O
0.750000 0.625000 0.875000 O
0.375000 0.000000 0.375000 O
0.375000 0.000000 0.875000 O
0.375000 0.500000 0.375000 O
0.375000 0.500000 0.875000 O
0.875000 0.000000 0.375000 O
0.875000 0.000000 0.875000 O
0.875000 0.500000 0.375000 O
0.875000 0.500000 0.875000 O
0.375000 0.375000 0.000000 O
0.375000 0.375000 0.500000 O
0.375000 0.875000 0.000000 O
0.375000 0.875000 0.500000 O
0.875000 0.375000 0.000000 O
0.875000 0.375000 0.500000 O
0.875000 0.875000 0.000000 O
0.875000 0.875000 0.500000 O
0.250000 0.375000 0.125000 O
0.250000 0.375000 0.625000 O
0.250000 0.875000 0.125000 O
0.250000 0.875000 0.625000 O
0.750000 0.375000 0.125000 O
0.750000 0.375000 0.625000 O
0.750000 0.875000 0.125000 O
0.750000 0.875000 0.625000 O
0.375000 0.250000 0.125000 O
0.375000 0.250000 0.625000 O
0.375000 0.750000 0.125000 O
0.375000 0.750000 0.625000 O
0.875000 0.250000 0.125000 O
0.875000 0.250000 0.625000 O
0.875000 0.750000 0.125000 O
0.875000 0.750000 0.625000 O
0.375000 0.375000 0.250000 O
0.375000 0.375000 0.750000 O
0.375000 0.875000 0.250000 O
0.375000 0.875000 0.750000 O
0.875000 0.375000 0.250000 O
0.875000 0.375000 0.750000 O
0.875000 0.875000 0.250000 O
0.875000 0.875000 0.750000 O
0.250000 0.375000 0.375000 O
0.250000 0.375000 0.875000 O
0.250000 0.875000 0.375000 O
0.250000 0.875000 0.875000 O
0.750000 0.375000 0.375000 O
0.750000 0.375000 0.875000 O
0.750000 0.875000 0.375000 O
0.750000 0.875000 0.875000 O
0.375000 0.250000 0.375000 O
0.375000 0.250000 0.875000 O
0.375000 0.750000 0.375000 O
0.375000 0.750000 0.875000 O
0.875000 0.250000 0.375000 O
0.875000 0.250000 0.875000 O
0.875000 0.750000 0.375000 O
0.875000 0.750000 0.875000 O
