Mg1 Al32                                
   1.00000000000000     
     8.0870519999999999    0.0000000000000000    0.0000000000000000
     0.0000000000000000    8.0870519999999999    0.0000000000000000
     0.0000000000000000    0.0000000000000000    8.0870519999999999
   Al   Mg
  32   1
Direct
  0.0097011827600874  0.0097011827600874  0.0097011827600874
  0.2507900922994722  0.0157238319387327  0.2507900922994722
  0.2507900922994722  0.2507900922994722  0.0157238319387327
  0.0157238319387327  0.2507900922994722  0.2507900922994722
  0.4872407900990998  0.0046618041424054  0.0046618041424054
  0.7357192314358669  0.0276975485192351  0.2460080449851459
  0.7357192314358669  0.2460080449851459  0.0276975485192351
  0.4793316621731460  0.2423503606641979  0.2423503606641979
  0.0046618041424054  0.4872407900990998  0.0046618041424054
  0.2423503606641979  0.4793316621731460  0.2423503606641979
  0.2460080449851459  0.7357192314358669  0.0276975485192350
  0.0276975485192351  0.7357192314358669  0.2460080449851459
  0.4881823020571806  0.4881823020571806  0.0051221227608086
  0.7565900233425645  0.4820286268416152  0.2365610618735088
  0.7685140303525047  0.7685140303525047  0.0480087129781325
  0.4820286268416152  0.7565900233425645  0.2365610618735088
  0.0046618041424054  0.0046618041424054  0.4872407900990998
  0.2460080449851459  0.0276975485192351  0.7357192314358669
  0.2423503606641979  0.2423503606641979  0.4793316621731460
  0.0276975485192351  0.2460080449851459  0.7357192314358669
  0.4881823020571806  0.0051221227608086  0.4881823020571806
  0.7685140303525047  0.0480087129781325  0.7685140303525047
  0.7565900233425645  0.2365610618735088  0.4820286268416152
  0.4820286268416152  0.2365610618735088  0.7565900233425645
  0.0051221227608086  0.4881823020571806  0.4881823020571806
  0.2365610618735088  0.4820286268416152  0.7565900233425645
  0.2365610618735088  0.7565900233425645  0.4820286268416152
  0.0480087129781325  0.7685140303525047  0.7685140303525047
  0.4892147237094324  0.4892147237094324  0.4892147237094324
  0.7645853578214514  0.4004477319794230  0.7645853578214514
  0.7645853578214514  0.7645853578214514  0.4004477319794230
  0.4004477319794230  0.7645853578214514  0.7645853578214514
  0.7178322729308373  0.7178322729308373  0.7178322729308373
 
  0.00000000E+00  0.00000000E+00  0.00000000E+00
  0.00000000E+00  0.00000000E+00  0.00000000E+00
  0.00000000E+00  0.00000000E+00  0.00000000E+00
  0.00000000E+00  0.00000000E+00  0.00000000E+00
  0.00000000E+00  0.00000000E+00  0.00000000E+00
  0.00000000E+00  0.00000000E+00  0.00000000E+00
  0.00000000E+00  0.00000000E+00  0.00000000E+00
  0.00000000E+00  0.00000000E+00  0.00000000E+00
  0.00000000E+00  0.00000000E+00  0.00000000E+00
  0.00000000E+00  0.00000000E+00  0.00000000E+00
  0.00000000E+00  0.00000000E+00  0.00000000E+00
  0.00000000E+00  0.00000000E+00  0.00000000E+00
  0.00000000E+00  0.00000000E+00  0.00000000E+00
  0.00000000E+00  0.00000000E+00  0.00000000E+00
  0.00000000E+00  0.00000000E+00  0.00000000E+00
  0.00000000E+00  0.00000000E+00  0.00000000E+00
  0.00000000E+00  0.00000000E+00  0.00000000E+00
  0.00000000E+00  0.00000000E+00  0.00000000E+00
  0.00000000E+00  0.00000000E+00  0.00000000E+00
  0.00000000E+00  0.00000000E+00  0.00000000E+00
  0.00000000E+00  0.00000000E+00  0.00000000E+00
  0.00000000E+00  0.00000000E+00  0.00000000E+00
  0.00000000E+00  0.00000000E+00  0.00000000E+00
  0.00000000E+00  0.00000000E+00  0.00000000E+00
  0.00000000E+00  0.00000000E+00  0.00000000E+00
  0.00000000E+00  0.00000000E+00  0.00000000E+00
  0.00000000E+00  0.00000000E+00  0.00000000E+00
  0.00000000E+00  0.00000000E+00  0.00000000E+00
  0.00000000E+00  0.00000000E+00  0.00000000E+00
  0.00000000E+00  0.00000000E+00  0.00000000E+00
  0.00000000E+00  0.00000000E+00  0.00000000E+00
  0.00000000E+00  0.00000000E+00  0.00000000E+00
  0.00000000E+00  0.00000000E+00  0.00000000E+00
