Sr1 Al94 Cr1
1.0
16.000000 0.000000 0.000000
0.000000 12.000000 0.000000
0.000000 0.000000 8.000000
Sr Al Cr
1 94 1
direct
0.125000 0.166667 0.000000 Sr
0.000000 0.000000 0.000000 Al
0.000000 0.000000 0.500000 Al
0.000000 0.333333 0.000000 Al
0.000000 0.333333 0.500000 Al
0.000000 0.666667 0.000000 Al
0.000000 0.666667 0.500000 Al
0.250000 0.000000 0.000000 Al
0.250000 0.000000 0.500000 Al
0.250000 0.333333 0.000000 Al
0.250000 0.333333 0.500000 Al
0.250000 0.666667 0.000000 Al
0.250000 0.666667 0.500000 Al
0.500000 0.000000 0.000000 Al
0.500000 0.000000 0.500000 Al
0.500000 0.333333 0.000000 Al
0.500000 0.333333 0.500000 Al
0.500000 0.666667 0.000000 Al
0.500000 0.666667 0.500000 Al
0.750000 0.000000 0.000000 Al
0.750000 0.000000 0.500000 Al
0.750000 0.333333 0.000000 Al
0.750000 0.333333 0.500000 Al
0.750000 0.666667 0.000000 Al
0.750000 0.666667 0.500000 Al
0.125000 0.166667 0.500000 Al
0.125000 0.500000 0.000000 Al
0.125000 0.500000 0.500000 Al
0.125000 0.833333 0.000000 Al
0.125000 0.833333 0.500000 Al
0.375000 0.166667 0.000000 Al
0.375000 0.166667 0.500000 Al
0.375000 0.500000 0.000000 Al
0.375000 0.500000 0.500000 Al
0.375000 0.833333 0.000000 Al
0.375000 0.833333 0.500000 Al
0.625000 0.166667 0.000000 Al
0.625000 0.166667 0.500000 Al
0.625000 0.500000 0.000000 Al
0.625000 0.500000 0.500000 Al
0.625000 0.833333 0.000000 Al
0.625000 0.833333 0.500000 Al
0.875000 0.166667 0.000000 Al
0.875000 0.166667 0.500000 Al
0.875000 0.500000 0.000000 Al
0.875000 0.500000 0.500000 Al
0.875000 0.833333 0.000000 Al
0.875000 0.833333 0.500000 Al
0.125000 0.000000 0.250000 Al
0.125000 0.000000 0.750000 Al
0.125000 0.333333 0.250000 Al
0.125000 0.333333 0.750000 Al
0.125000 0.666667 0.250000 Al
0.125000 0.666667 0.750000 Al
0.375000 0.000000 0.250000 Al
0.375000 0.000000 0.750000 Al
0.375000 0.333333 0.250000 Al
0.375000 0.333333 0.750000 Al
0.375000 0.666667 0.250000 Al
0.375000 0.666667 0.750000 Al
0.625000 0.000000 0.250000 Al
0.625000 0.000000 0.750000 Al
0.625000 0.333333 0.250000 Al
0.625000 0.333333 0.750000 Al
0.625000 0.666667 0.250000 Al
0.625000 0.666667 0.750000 Al
0.875000 0.000000 0.250000 Al
0.875000 0.000000 0.750000 Al
0.875000 0.333333 0.250000 Al
0.875000 0.333333 0.750000 Al
0.875000 0.666667 0.250000 Al
0.875000 0.666667 0.750000 Al
0.000000 0.166667 0.750000 Al
0.000000 0.500000 0.250000 Al
0.000000 0.500000 0.750000 Al
0.000000 0.833333 0.250000 Al
0.000000 0.833333 0.750000 Al
0.250000 0.166667 0.250000 Al
0.250000 0.166667 0.750000 Al
0.250000 0.500000 0.250000 Al
0.250000 0.500000 0.750000 Al
0.250000 0.833333 0.250000 Al
0.250000 0.833333 0.750000 Al
0.500000 0.166667 0.250000 Al
0.500000 0.166667 0.750000 Al
0.500000 0.500000 0.250000 Al
0.500000 0.500000 0.750000 Al
0.500000 0.833333 0.250000 Al
0.500000 0.833333 0.750000 Al
0.750000 0.166667 0.250000 Al
0.750000 0.166667 0.750000 Al
0.750000 0.500000 0.250000 Al
0.750000 0.500000 0.750000 Al
0.750000 0.833333 0.250000 Al
0.750000 0.833333 0.750000 Al
0.200000 0.233333 0.300000 Cr
