Al31                                    
   1.00000000000000     
     8.0870519999999999    0.0000000000000000    0.0000000000000000
     0.0000000000000000    8.0870519999999999    0.0000000000000000
     0.0000000000000000    0.0000000000000000    8.0870519999999999
   Al
  31
Selective dynamics
Direct
  0.0000000000000000  0.0000000000000000  0.0000000000000000   F   F   F
  0.2494399999999999  0.0000000000000000  0.2494399999999999   F   F   F
  0.2494399999999999  0.2494399999999999  0.0000000000000000   F   F   F
  0.0000000000000000  0.2494399999999999  0.2494399999999999   F   F   F
  0.5000000000000000  0.0000000000000000  0.0000000000000000   F   F   F
  0.7505600000000001  0.0000000000000000  0.2494399999999999   F   F   F
  0.7505600000000001  0.2494399999999999  0.0000000000000000   F   F   F
  0.5000000000000000  0.2532690000000031  0.2532690000000031   F   F   F
  0.0000000000000000  0.5000000000000000  0.0000000000000000   F   F   F
  0.2532690000000031  0.4999999999999999  0.2514141831891306   T   T   T
  0.2494399999999999  0.7505600000000001  0.0000000000000000   F   F   F
  0.0000000000000000  0.7505600000000001  0.2494399999999999   F   F   F
  0.5000000000000000  0.5000000000000000  0.0000000000000000   F   F   F
  0.7467309999999969  0.5000000000000000  0.2532690000000031   F   F   F
  0.7505600000000001  0.7505600000000001  0.0000000000000000   F   F   F
  0.5000000000000000  0.7467309999999969  0.2532690000000031   F   F   F
  0.0000000000000000  0.0000000000000000  0.5000000000000000   F   F   F
  0.2494399999999999  0.0000000000000000  0.7505600000000001   F   F   F
  0.2532690000000031  0.2532690000000031  0.5000000000000000   F   F   F
  0.0000000000000000  0.2494399999999999  0.7505600000000001   F   F   F
  0.5000000000000000  0.0000000000000000  0.5000000000000000   F   F   F
  0.7505600000000001  0.0000000000000000  0.7505600000000001   F   F   F
  0.7467309999999969  0.2532690000000031  0.5000000000000000   F   F   F
  0.5000000000000000  0.2532690000000031  0.7467309999999969   F   F   F
  0.0000000000000000  0.5000000000000000  0.5000000000000000   F   F   F
  0.2532690000000031  0.5000000000000000  0.7467309999999969   F   F   F
  0.2532690000000031  0.7467309999999969  0.5000000000000000   F   F   F
  0.0000000000000000  0.7505600000000001  0.7505600000000001   F   F   F
  0.7467309999999969  0.5000000000000000  0.7467309999999969   F   F   F
  0.7467309999999969  0.7467309999999969  0.5000000000000000   F   F   F
  0.5000000000000000  0.7467309999999969  0.7467309999999969   F   F   F
 
  0.00000000E+00  0.00000000E+00  0.00000000E+00
  0.00000000E+00  0.00000000E+00  0.00000000E+00
  0.00000000E+00  0.00000000E+00  0.00000000E+00
  0.00000000E+00  0.00000000E+00  0.00000000E+00
  0.00000000E+00  0.00000000E+00  0.00000000E+00
  0.00000000E+00  0.00000000E+00  0.00000000E+00
  0.00000000E+00  0.00000000E+00  0.00000000E+00
  0.00000000E+00  0.00000000E+00  0.00000000E+00
  0.00000000E+00  0.00000000E+00  0.00000000E+00
  0.00000000E+00  0.00000000E+00  0.00000000E+00
  0.00000000E+00  0.00000000E+00  0.00000000E+00
  0.00000000E+00  0.00000000E+00  0.00000000E+00
  0.00000000E+00  0.00000000E+00  0.00000000E+00
  0.00000000E+00  0.00000000E+00  0.00000000E+00
  0.00000000E+00  0.00000000E+00  0.00000000E+00
  0.00000000E+00  0.00000000E+00  0.00000000E+00
  0.00000000E+00  0.00000000E+00  0.00000000E+00
  0.00000000E+00  0.00000000E+00  0.00000000E+00
  0.00000000E+00  0.00000000E+00  0.00000000E+00
  0.00000000E+00  0.00000000E+00  0.00000000E+00
  0.00000000E+00  0.00000000E+00  0.00000000E+00
  0.00000000E+00  0.00000000E+00  0.00000000E+00
  0.00000000E+00  0.00000000E+00  0.00000000E+00
  0.00000000E+00  0.00000000E+00  0.00000000E+00
  0.00000000E+00  0.00000000E+00  0.00000000E+00
  0.00000000E+00  0.00000000E+00  0.00000000E+00
  0.00000000E+00  0.00000000E+00  0.00000000E+00
  0.00000000E+00  0.00000000E+00  0.00000000E+00
  0.00000000E+00  0.00000000E+00  0.00000000E+00
  0.00000000E+00  0.00000000E+00  0.00000000E+00
  0.00000000E+00  0.00000000E+00  0.00000000E+00
