Al31
1.0
8.087052 0.000000 0.000000
0.000000 8.087052 0.000000
0.000000 0.000000 8.087052
Al
31
direct
0.000000 0.000000 0.000000 Al
0.249440 0.000000 0.249440 Al
0.249440 0.249440 0.000000 Al
0.000000 0.249440 0.249440 Al
0.500000 0.000000 0.000000 Al
0.750560 0.000000 0.249440 Al
0.750560 0.249440 0.000000 Al
0.500000 0.253269 0.253269 Al
0.000000 0.500000 0.000000 Al
0.253269 0.500000 0.253269 Al
0.249440 0.750560 0.000000 Al
0.000000 0.750560 0.249440 Al
0.500000 0.500000 0.000000 Al
0.746731 0.500000 0.253269 Al
0.750560 0.750560 0.000000 Al
0.500000 0.746731 0.253269 Al
0.000000 0.000000 0.500000 Al
0.249440 0.000000 0.750560 Al
0.253269 0.253269 0.500000 Al
0.000000 0.249440 0.750560 Al
0.500000 0.000000 0.500000 Al
0.750560 0.000000 0.750560 Al
0.746731 0.253269 0.500000 Al
0.500000 0.253269 0.746731 Al
0.000000 0.500000 0.500000 Al
0.253269 0.500000 0.746731 Al
0.253269 0.746731 0.500000 Al
0.000000 0.750560 0.750560 Al
0.746731 0.500000 0.746731 Al
0.746731 0.746731 0.500000 Al
0.500000 0.746731 0.746731 Al

0.000000 0.000000 0.000000
0.000000 0.000000 0.000000
0.000000 0.000000 0.000000
0.000000 0.000000 0.000000
0.000000 0.000000 0.000000
0.000000 0.000000 0.000000
0.000000 0.000000 0.000000
0.000000 0.000000 0.000000
0.000000 0.000000 0.000000
0.000000 0.000000 0.000000
0.000000 0.000000 0.000000
0.000000 0.000000 0.000000
0.000000 0.000000 0.000000
0.000000 0.000000 0.000000
0.000000 0.000000 0.000000
0.000000 0.000000 0.000000
0.000000 0.000000 0.000000
0.000000 0.000000 0.000000
0.000000 0.000000 0.000000
0.000000 0.000000 0.000000
0.000000 0.000000 0.000000
0.000000 0.000000 0.000000
0.000000 0.000000 0.000000
0.000000 0.000000 0.000000
0.000000 0.000000 0.000000
0.000000 0.000000 0.000000
0.000000 0.000000 0.000000
0.000000 0.000000 0.000000
0.000000 0.000000 0.000000
0.000000 0.000000 0.000000
0.000000 0.000000 0.000000
