POSCAR_02:Al                                      
1.0000000000
10.9063935957 0.0000000000 0.0000000000
0.0000000000 10.9063935957 0.0000000000
0.0000000000 0.0000000000 10.9063935957
   Al   Mg
1 106 
D
0.0006430689 0.0022086104 0.0023053962
0.0019132735 0.0034788150 0.3354332416
0.0005400182 0.0021055597 0.6667270343
0.0005356443 0.3349212216 0.0024141076
0.0019158403 0.3334911838 0.3353254244
0.0005740160 0.3347197126 0.6669656989
0.0002470062 0.6675272963 0.0019961952
0.0004528724 0.6677990038 0.3353239442
0.0002732618 0.6678034841 0.6673657937
0.3333556801 0.0021011858 0.0024141076
0.3319256423 0.0034813818 0.3353254244
0.3331541712 0.0021395575 0.6669656989
0.3332086894 0.3347742309 0.0024353429
0.3315293192 0.3330948607 0.3351454268
0.3330243018 0.3345898433 0.6670517650
0.3335895560 0.6677608423 0.0019745716
0.3331796397 0.6679367242 0.3352104960
0.3333863772 0.6679332301 0.6674803843
0.6659617548 0.0018125476 0.0019961952
0.6662334623 0.0020184139 0.3353239442
0.6662379426 0.0018388033 0.6673657937
0.6661953008 0.3351550975 0.0019745716
0.6663711827 0.3347451812 0.3352104960
0.6663676886 0.3349519187 0.6674803843
0.6662321953 0.6677977368 0.0017366301
0.6663225096 0.6678880511 0.3352275917
0.6663833825 0.6679489240 0.6677831693
0.0021174143 0.1691768276 0.1711711711
0.0020467042 0.1684758820 0.4995266484
0.0004157790 0.1691080010 0.8341036192
0.0005716250 0.5007164589 0.1690660695
0.0005991802 0.5007386125 0.5010051952
0.0002568332 0.5011281166 0.8345709000
0.0006019727 0.8348483985 0.1696682066
0.0005754828 0.8354339058 0.5008930988
0.0002689504 0.8344220382 0.8340224102
0.3317158299 0.1686063369 0.1706142134
0.3314701546 0.1684098759 0.4994691685
0.3332776046 0.1686512200 0.8345315005
0.3330489791 0.5007330953 0.1690173606
0.3328846612 0.5006580621 0.5009564903
0.3334075896 0.5011192841 0.8346557329
0.3330917583 0.8353352704 0.1691898597
0.3330411896 0.8355523257 0.5009759403
0.3335241584 0.8349060591 0.8344655852
0.6663358812 0.1686126741 0.1690587746
0.6663978185 0.1684797266 0.5011040555
0.6661500981 0.1686516328 0.8343868384
0.6663742181 0.5011477934 0.1687304149
0.6664646867 0.5011002900 0.5013171264
0.6663747585 0.5014373190 0.8346511377
0.6662794185 0.8349415212 0.1688546495
0.6663806008 0.8351185709 0.5013881546
0.6663284501 0.8346988218 0.8345410129
0.1669103405 0.0036122457 0.4995266484
0.1675424595 0.0019813205 0.8341036192
0.1670407954 0.3332813713 0.1706142134
0.1668443345 0.3330356961 0.4994691685
0.1670856785 0.3348431461 0.8345315005
0.1670471326 0.6679014227 0.1690587746
0.1669141851 0.6679633600 0.5011040555
0.1670860913 0.6677156396 0.8343868384
0.4991509174 0.0021371664 0.1690660695
0.4991730710 0.0021647217 0.5010051952
0.4995625751 0.0018223746 0.8345709000
0.4991675538 0.3346145206 0.1690173606
0.4990925206 0.3344502027 0.5009564903
0.4995537426 0.3349731311 0.8346557329
0.4995822519 0.6679397596 0.1687304149
0.4995347485 0.6680302282 0.5013171264
0.4998717775 0.6679403000 0.8346511377
0.8332828570 0.0021675142 0.1696682066
0.8338683643 0.0021410243 0.5008930988
0.8328564967 0.0018344919 0.8340224102
0.8337697289 0.3346572998 0.1691898597
0.8339867842 0.3346067311 0.5009759403
0.8333405176 0.3350896999 0.8344655852
0.8333759797 0.6678449600 0.1688546495
0.8335530294 0.6679461423 0.5013881546
0.8331332803 0.6678939916 0.8345410129
0.1675532246 0.1691187661 0.0028394239
0.1676112861 0.0036829557 0.1711711711
0.1670006846 0.1685662260 0.6667419090
0.1670134410 0.5012544749 0.0019185828
0.1668712571 0.5003568341 0.3351510798
0.1669066558 0.5011388929 0.6675144826
0.1675945774 0.8341400476 0.0017418415
0.1670679319 0.8358183138 0.3352512436
0.1670608200 0.8348893195 0.6674921139
0.4996889334 0.1685789825 0.0019185828
0.4987912926 0.1684367986 0.3351510798
0.4995733514 0.1684721973 0.6675144826
0.4996727404 0.5012382819 0.0018965921
0.4996067019 0.5011722434 0.3350807444
0.4996771962 0.5012427377 0.6677189369
0.4996687626 0.8349127877 0.0018951224
0.4997214504 0.8349980610 0.3352280192
0.4996847009 0.8350036105 0.6676050129
0.8325745062 0.1691601189 0.0017418415
0.8342527723 0.1686334734 0.3352512436
0.8333237780 0.1686263615 0.6674921139
0.8333472462 0.5012343041 0.0018951224
0.8334325196 0.5012869919 0.3352280192
0.8334380690 0.5012502423 0.6676050129
0.8327927786 0.8343583201 0.0019026370
0.8331642228 0.8347297643 0.3352889488
0.8333133504 0.8348788919 0.6675933717
