Sc Ti W
1.0
12.000000 11.000000 10.000000
9.000000 8.000000 7.000000
6.000000 5.000000 4.000000
Sc Ti W
4 4 2
direct
0.110000 0.210000 0.310000 Sc
0.210000 0.310000 0.410000 Sc
0.310000 0.410000 0.510000 Sc
0.410000 0.510000 0.610000 Sc
0.510000 0.610000 0.710000 Ti
0.410000 0.510000 0.610000 Ti
0.310000 0.410000 0.510000 Ti
0.210000 0.310000 0.410000 Ti
0.110000 0.210000 0.310000 W
0.010000 0.110000 0.210000 W
