Cr4 Fe4 Ni2
1.0
4.000000 0.000000 0.100000
0.100000 4.000000 0.000000
0.000000 0.000000 4.000000
Cr Fe Ni
4 4 2
direct
0.110000 0.210000 0.310000 Cr
0.210000 0.310000 0.410000 Cr
0.310000 0.410000 0.510000 Cr
0.410000 0.510000 0.610000 Cr
0.510000 0.610000 0.710000 Fe
0.410000 0.510000 0.610000 Fe
0.310000 0.410000 0.510000 Fe
0.210000 0.310000 0.410000 Fe
0.110000 0.210000 0.310000 Ni
0.010000 0.110000 0.210000 Ni
