POSCAR_02:Al                                      
1.0000000000
10.9063935957 0.0000000000 0.0000000000
0.0000000000 10.9063935957 0.0000000000
0.0000000000 0.0000000000 10.9063935957
   Al   Mg
1 106 
D
-0.0015655415 -0.0000000000 0.0027813816
0.1638756980 -0.0000000000 0.1710945887
-0.0015655415 -0.0000000000 0.6663768382
-0.0015655415 0.3337361671 0.0018564773
-0.0015655415 0.3325513811 0.3353144805
-0.0015655415 0.3333130109 0.6674407639
-0.0015655415 0.6662638329 0.0018564773
-0.0015655415 0.6674486189 0.3353144805
-0.0015655415 0.6666869891 0.6674407639
0.3321706256 -0.0000000000 0.0018564773
0.3309858396 -0.0000000000 0.3353144805
0.3317474695 -0.0000000000 0.6674407639
0.3319675116 0.3335330531 0.0018883137
0.3317678058 0.3333333473 0.3352305028
0.3317215812 0.3332871227 0.6675957498
0.3319675116 0.6664669469 0.0018883137
0.3317678058 0.6666666527 0.3352305028
0.3317215812 0.6667128773 0.6675957498
0.6646982914 -0.0000000000 0.0018564773
0.6658830774 -0.0000000000 0.3353144805
0.6651214476 -0.0000000000 0.6674407639
0.6649014055 0.3335330531 0.0018883137
0.6651011113 0.3333333473 0.3352305028
0.6651473358 0.3332871227 0.6675957498
0.6649014055 0.6664669469 0.0018883137
0.6651011113 0.6666666527 0.3352305028
0.6651473358 0.6667128773 0.6675957498
-0.0015655415 0.1654412394 0.1710945887
-0.0015655415 0.1648988503 0.4994906649
-0.0015655415 0.1670938814 0.8341695820
-0.0015655415 0.5000000000 0.1689778089
-0.0015655415 0.5000000000 0.5011083340
-0.0015655415 0.5000000000 0.8344819475
-0.0015655415 0.8345587606 0.1710945887
-0.0015655415 0.8351011497 0.4994906649
-0.0015655415 0.8329061186 0.8341695820
0.3313361595 0.1664612839 0.1691981426
0.3311989667 0.1662964426 0.5009579555
0.3317542773 0.1668199882 0.8344635263
0.3316369750 0.5000000000 0.1687350017
0.3315096706 0.5000000000 0.5013351755
0.3319091364 0.5000000000 0.8346366486
0.3313361595 0.8335387161 0.1691981426
0.3311989667 0.8337035574 0.5009579555
0.3317542773 0.8331800118 0.8344635263
0.6655327575 0.1664612839 0.1691981426
0.6656699503 0.1662964426 0.5009579555
0.6651146398 0.1668199882 0.8344635263
0.6652319421 0.5000000000 0.1687350017
0.6653592464 0.5000000000 0.5013351755
0.6649597806 0.5000000000 0.8346366486
0.6655327575 0.8335387161 0.1691981426
0.6656699503 0.8337035574 0.5009579555
0.6651146398 0.8331800118 0.8344635263
0.1633333089 -0.0000000000 0.4994906649
0.1655283399 -0.0000000000 0.8341695820
0.1648957424 0.3329017010 0.1691981426
0.1647309011 0.3327645082 0.5009579555
0.1652544467 0.3333198187 0.8344635263
0.1648957424 0.6670982990 0.1691981426
0.1647309011 0.6672354918 0.5009579555
0.1652544467 0.6666801813 0.8344635263
0.4984344585 -0.0000000000 0.1689778089
0.4984344585 -0.0000000000 0.5011083340
0.4984344585 -0.0000000000 0.8344819475
0.4984344585 0.3332025165 0.1687350017
0.4984344585 0.3330752121 0.5013351755
0.4984344585 0.3334746779 0.8346366486
0.4984344585 0.6667974835 0.1687350017
0.4984344585 0.6669247879 0.5013351755
0.4984344585 0.6665253221 0.8346366486
0.8329932191 -0.0000000000 0.1710945887
0.8335356082 -0.0000000000 0.4994906649
0.8313405771 -0.0000000000 0.8341695820
0.8319731746 0.3329017010 0.1691981426
0.8321380160 0.3327645082 0.5009579555
0.8316144703 0.3333198187 0.8344635263
0.8319731746 0.6670982990 0.1691981426
0.8321380160 0.6672354918 0.5009579555
0.8316144703 0.6666801813 0.8344635263
0.1656226009 0.1671881424 0.0024041471
0.1635979733 0.1651635148 0.3352415906
0.1648601080 0.1664256495 0.6670139081
0.1651842474 0.5000000000 0.0019950597
0.1648520540 0.5000000000 0.3352113517
0.1650372276 0.5000000000 0.6674767865
0.1656226009 0.8328118576 0.0024041471
0.1635979733 0.8348364852 0.3352415906
0.1648601080 0.8335743505 0.6670139081
0.4984344585 0.1667497889 0.0019950597
0.4984344585 0.1664175954 0.3352113517
0.4984344585 0.1666027691 0.6674767865
0.4984344585 0.5000000000 0.0017399312
0.4984344585 0.5000000000 0.3350829396
0.4984344585 0.5000000000 0.6678896212
0.4984344585 0.8332502111 0.0019950597
0.4984344585 0.8335824046 0.3352113517
0.4984344585 0.8333972309 0.6674767865
0.8312463161 0.1671881424 0.0024041471
0.8332709437 0.1651635148 0.3352415906
0.8320088090 0.1664256495 0.6670139081
0.8316846696 0.5000000000 0.0019950597
0.8320168631 0.5000000000 0.3352113517
0.8318316894 0.5000000000 0.6674767865
0.8312463161 0.8328118576 0.0024041471
0.8332709437 0.8348364852 0.3352415906
0.8320088090 0.8335743505 0.6670139081
