Mg1 Al32                                
   1.00000000000000     
     8.0870519999999999    0.0000000000000000    0.0000000000000000
     0.0000000000000000    8.0870519999999999    0.0000000000000000
     0.0000000000000000    0.0000000000000000    8.0870519999999999
   Al   Mg
  32   1
Direct
  0.0037528007974726  0.0037528007974726  0.9967547461528917
  0.2424748377114077  0.0174435345408714  0.2580412899603591
  0.2519563238573256  0.2519563238573256  0.0008000121973672
  0.0174435345408714  0.2424748377114077  0.2580412899603591
  0.4942546031434075 -0.0070262469003470  0.0067786341710389
  0.7565589835232205  0.0476093240811965  0.2449739242928448
  0.7414383071627907  0.2422996964040131  0.9836954089691820
  0.4824951426197017  0.2398267527393559  0.2587633933137895
 -0.0070262469003470  0.4942546031434075  0.0067786341710389
  0.2398267527393559  0.4824951426197017  0.2587633933137895
  0.2422996964040131  0.7414383071627907  0.9836954089691820
  0.0476093240811965  0.7565589835232205  0.2449739242928448
  0.5066378569097398  0.5066378569097398  0.0206887089486250
  0.7514826961615479  0.4125970140820358  0.2478945169455112
  0.7563975845599149  0.7563975845599149  0.9499076120858203
  0.4125970140820358  0.7514826961615479  0.2478945169455112
 -0.0050117352260293 -0.0050117352260293  0.5070795052856885
  0.2520538498911020 -0.0004204102064143  0.7487426057434792
  0.2500467126653480  0.2500467126653480  0.5098030109855911
 -0.0004204102064143  0.2520538498911020  0.7487426057434792
  0.5053220785838349 -0.0202508525610254  0.4939949951153869
  0.7418527873124751  0.0160113304094337  0.7553180487452635
  0.7407592021760523  0.2400778671169388  0.5184258635523640
  0.4906911413064871  0.2498785170268005  0.7508172705632185
 -0.0202508525610254  0.5053220785838349  0.4939949951153869
  0.2498785170268005  0.4906911413064871  0.7508172705632185
  0.2400778671169388  0.7407592021760523  0.5184258635523640
  0.0160113304094337  0.7418527873124751  0.7553180487452635
  0.5087226636043455  0.5087226636043455  0.4906300149849440
  0.7411402491197302  0.4833050530411948  0.7587952054397931
  0.7523796339928985  0.7523796339928985  0.5827494324584693
  0.4833050530411948  0.7411402491197302  0.7587952054397931
  0.7215927003531606  0.7215927003531606  0.2710676432761192
 
  0.00000000E+00  0.00000000E+00  0.00000000E+00
  0.00000000E+00  0.00000000E+00  0.00000000E+00
  0.00000000E+00  0.00000000E+00  0.00000000E+00
  0.00000000E+00  0.00000000E+00  0.00000000E+00
  0.00000000E+00  0.00000000E+00  0.00000000E+00
  0.00000000E+00  0.00000000E+00  0.00000000E+00
  0.00000000E+00  0.00000000E+00  0.00000000E+00
  0.00000000E+00  0.00000000E+00  0.00000000E+00
  0.00000000E+00  0.00000000E+00  0.00000000E+00
  0.00000000E+00  0.00000000E+00  0.00000000E+00
  0.00000000E+00  0.00000000E+00  0.00000000E+00
  0.00000000E+00  0.00000000E+00  0.00000000E+00
  0.00000000E+00  0.00000000E+00  0.00000000E+00
  0.00000000E+00  0.00000000E+00  0.00000000E+00
  0.00000000E+00  0.00000000E+00  0.00000000E+00
  0.00000000E+00  0.00000000E+00  0.00000000E+00
  0.00000000E+00  0.00000000E+00  0.00000000E+00
  0.00000000E+00  0.00000000E+00  0.00000000E+00
  0.00000000E+00  0.00000000E+00  0.00000000E+00
  0.00000000E+00  0.00000000E+00  0.00000000E+00
  0.00000000E+00  0.00000000E+00  0.00000000E+00
  0.00000000E+00  0.00000000E+00  0.00000000E+00
  0.00000000E+00  0.00000000E+00  0.00000000E+00
  0.00000000E+00  0.00000000E+00  0.00000000E+00
  0.00000000E+00  0.00000000E+00  0.00000000E+00
  0.00000000E+00  0.00000000E+00  0.00000000E+00
  0.00000000E+00  0.00000000E+00  0.00000000E+00
  0.00000000E+00  0.00000000E+00  0.00000000E+00
  0.00000000E+00  0.00000000E+00  0.00000000E+00
  0.00000000E+00  0.00000000E+00  0.00000000E+00
  0.00000000E+00  0.00000000E+00  0.00000000E+00
  0.00000000E+00  0.00000000E+00  0.00000000E+00
  0.00000000E+00  0.00000000E+00  0.00000000E+00
