Mg1 Al32
1.0
8.087052 0.000000 0.000000
0.000000 8.087052 0.000000
0.000000 0.000000 8.087052
Al Mg
32 1
direct
0.009755 0.009755 -0.011209 Al
0.245166 0.027774 0.266394 Al
0.251662 0.251662 -0.017437 Al
0.027774 0.245166 0.266394 Al
0.487765 0.005403 -0.005422 Al
0.770129 0.044589 0.230921 Al
0.735178 0.243337 -0.029973 Al
0.482971 0.236624 0.243319 Al
0.005403 0.487765 -0.005422 Al
0.236624 0.482971 0.243319 Al
0.243337 0.735178 -0.029973 Al
0.044589 0.770129 0.230921 Al
0.487250 0.487250 -0.006385 Al
0.765087 0.397238 0.236042 Al
0.770683 0.770683 -0.045582 Al
0.397238 0.765087 0.236042 Al
0.006454 0.006454 0.515768 Al
0.250712 0.017143 0.748740 Al
0.243133 0.243133 0.521803 Al
0.017143 0.250712 0.748740 Al
0.488166 0.007486 0.512900 Al
0.738611 0.025943 0.754228 Al
0.757411 0.235634 0.518294 Al
0.480055 0.241851 0.757950 Al
0.007486 0.488166 0.512900 Al
0.241851 0.480055 0.757950 Al
0.235634 0.757411 0.518294 Al
0.025943 0.738611 0.754228 Al
0.487861 0.487861 0.513956 Al
0.756853 0.485204 0.762586 Al
0.765222 0.765222 0.589091 Al
0.485204 0.756853 0.762586 Al
0.660000 0.660000 0.330000 Mg

0.000000 0.000000 0.000000
0.000000 0.000000 0.000000
0.000000 0.000000 0.000000
0.000000 0.000000 0.000000
0.000000 0.000000 0.000000
0.000000 0.000000 0.000000
0.000000 0.000000 0.000000
0.000000 0.000000 0.000000
0.000000 0.000000 0.000000
0.000000 0.000000 0.000000
0.000000 0.000000 0.000000
0.000000 0.000000 0.000000
0.000000 0.000000 0.000000
0.000000 0.000000 0.000000
0.000000 0.000000 0.000000
0.000000 0.000000 0.000000
0.000000 0.000000 0.000000
0.000000 0.000000 0.000000
0.000000 0.000000 0.000000
0.000000 0.000000 0.000000
0.000000 0.000000 0.000000
0.000000 0.000000 0.000000
0.000000 0.000000 0.000000
0.000000 0.000000 0.000000
0.000000 0.000000 0.000000
0.000000 0.000000 0.000000
0.000000 0.000000 0.000000
0.000000 0.000000 0.000000
0.000000 0.000000 0.000000
0.000000 0.000000 0.000000
0.000000 0.000000 0.000000
0.000000 0.000000 0.000000
0.000000 0.000000 0.000000
