Al31                                    
   1.00000000000000     
     8.0870519999999999    0.0000000000000000    0.0000000000000000
     0.0000000000000000    8.0870519999999999    0.0000000000000000
     0.0000000000000000    0.0000000000000000    8.0870519999999999
   Al
  31
Direct
  0.9996909999999986  0.0000000000000000  0.9996909999999986
  0.2484660000000005  0.0000000000000000  0.2484660000000005
  0.2481209999999976  0.2533680000000018  0.0023800000000023
  0.0023800000000023  0.2533680000000018  0.2481209999999976
  0.5005349999999993  0.0000000000000000  0.9930730000000025
  0.7569260000000000  0.0000000000000000  0.2494659999999982
  0.7513360000000020  0.2508100000000013  0.9986630000000005
  0.5065629999999999  0.2369720000000015  0.2434349999999981
  0.0009170000000012  0.5000000000000000  0.0009170000000012
  0.2481209999999976  0.7466319999999982  0.0023800000000023
  0.0023800000000023  0.7466319999999982  0.2481209999999976
  0.4948290000000028  0.5000000000000000  0.0054209999999983
  0.7445809999999966  0.5000000000000000  0.2551690000000022
  0.7513360000000020  0.7491890000000012  0.9986630000000005
  0.5065629999999999  0.7630290000000031  0.2434349999999981
  0.9930730000000025  0.0000000000000000  0.5005349999999993
  0.2494659999999982  0.0000000000000000  0.7569260000000000
  0.2434349999999981  0.2369720000000015  0.5065629999999999
  0.9986630000000005  0.2508100000000013  0.7513360000000020
  0.5015349999999970  0.0000000000000000  0.5015349999999970
  0.7503079999999969  0.0000000000000000  0.7503079999999969
  0.7476219999999998  0.2533659999999998  0.5018799999999999
  0.5018799999999999  0.2533659999999998  0.7476219999999998
  0.0054209999999983  0.5000000000000000  0.4948290000000028
  0.2551690000000022  0.5000000000000000  0.7445809999999966
  0.2434349999999981  0.7630290000000031  0.5065629999999999
  0.9986630000000005  0.7491890000000012  0.7513360000000020
  0.7490850000000009  0.5000000000000000  0.7490850000000009
  0.7476219999999998  0.7466340000000002  0.5018799999999999
  0.5018799999999999  0.7466340000000002  0.7476219999999998
  0.3750000000000000  0.5000000000000000  0.3750000000000000
 
  0.00000000E+00  0.00000000E+00  0.00000000E+00
  0.00000000E+00  0.00000000E+00  0.00000000E+00
  0.00000000E+00  0.00000000E+00  0.00000000E+00
  0.00000000E+00  0.00000000E+00  0.00000000E+00
  0.00000000E+00  0.00000000E+00  0.00000000E+00
  0.00000000E+00  0.00000000E+00  0.00000000E+00
  0.00000000E+00  0.00000000E+00  0.00000000E+00
  0.00000000E+00  0.00000000E+00  0.00000000E+00
  0.00000000E+00  0.00000000E+00  0.00000000E+00
  0.00000000E+00  0.00000000E+00  0.00000000E+00
  0.00000000E+00  0.00000000E+00  0.00000000E+00
  0.00000000E+00  0.00000000E+00  0.00000000E+00
  0.00000000E+00  0.00000000E+00  0.00000000E+00
  0.00000000E+00  0.00000000E+00  0.00000000E+00
  0.00000000E+00  0.00000000E+00  0.00000000E+00
  0.00000000E+00  0.00000000E+00  0.00000000E+00
  0.00000000E+00  0.00000000E+00  0.00000000E+00
  0.00000000E+00  0.00000000E+00  0.00000000E+00
  0.00000000E+00  0.00000000E+00  0.00000000E+00
  0.00000000E+00  0.00000000E+00  0.00000000E+00
  0.00000000E+00  0.00000000E+00  0.00000000E+00
  0.00000000E+00  0.00000000E+00  0.00000000E+00
  0.00000000E+00  0.00000000E+00  0.00000000E+00
  0.00000000E+00  0.00000000E+00  0.00000000E+00
  0.00000000E+00  0.00000000E+00  0.00000000E+00
  0.00000000E+00  0.00000000E+00  0.00000000E+00
  0.00000000E+00  0.00000000E+00  0.00000000E+00
  0.00000000E+00  0.00000000E+00  0.00000000E+00
  0.00000000E+00  0.00000000E+00  0.00000000E+00
  0.00000000E+00  0.00000000E+00  0.00000000E+00
  0.00000000E+00  0.00000000E+00  0.00000000E+00
