Al29 Ag1 Pt1 Au1                        
   1.00000000000000     
     8.0870400000000000    0.0000000000000000    0.0000000000000000
     0.0000000000000000    8.0870400000000000    0.0000000000000000
     0.0000000000000000    0.0000000000000000    8.0870400000000000
   Al   Ag   Pt   Au
  29   1   1   1
Direct
  0.0044728499395923  0.0003103863653864 -0.0002042403745163
  0.2584223465000058  0.9993550309927166  0.2440999922302883
  0.2593584839908957  0.2420391364846975  0.9971564341170872
  0.9989950956861970  0.2486456429423907  0.2493409588403480
  0.7512185705558656  0.0008920907744091  0.2538696868475707
  0.7514308339640514  0.2516179049330597  0.0002542181098303
  0.5028994929929651  0.2504368801662983  0.2516850690624238
  0.9984399073438586  0.4982000584786189 -0.0017856579804921
  0.2491866241736362  0.4975229505991983  0.2491088144878826
  0.9976860692741558  0.7479021498287446  0.2492551567508407
  0.5019423382390992  0.5017811903716123  0.0009612506687768
  0.7499092586287307  0.4995457259512358  0.2471835610467590
  0.7474142627297310  0.7543838681669190  0.0000817073329090
  0.4998850422639342  0.7546116491118268  0.2471754991342561
  0.9966277963736795 -0.0010952365766470  0.4983685802950359
  0.2494942348527232  0.2507730350341539  0.4962514866291122
  0.9962646283994545  0.2499461173258918  0.7474781303915463
  0.5010790687701834  0.0014684264343077  0.5036899481801069
  0.7462561869972828  0.0005955655892229  0.7553922070369096
  0.7494544916347372  0.2463219131885932  0.4993538182241020
  0.4986129363081454  0.2436752247200755  0.7560048495444639
 -0.0007956096652682  0.4983243749175263  0.4975411222641912
  0.2481835212844752  0.4980348182614959  0.7474154626834552
  0.2484400590986701  0.7478982531946616  0.4974554074632467
  0.9949354066878999  0.7478750077196419  0.7484643614358915
  0.4999541092791245  0.4976015656256571  0.4985005349864873
  0.7479047931341529  0.4962094576287990  0.7481508039922999
  0.7487408940815348  0.7489512170669940  0.4965852878327004
  0.4927820794960348  0.7600155037012171  0.7591417799197054
  0.2492403983497567  0.7459090922852896  0.0021481526098581
  0.5207966801933824  0.0145758159680404  0.0195951697226467
  0.2407661484413225  0.0056741827479889  0.7402794465142725
 
  0.00000000E+00  0.00000000E+00  0.00000000E+00
  0.00000000E+00  0.00000000E+00  0.00000000E+00
  0.00000000E+00  0.00000000E+00  0.00000000E+00
  0.00000000E+00  0.00000000E+00  0.00000000E+00
  0.00000000E+00  0.00000000E+00  0.00000000E+00
  0.00000000E+00  0.00000000E+00  0.00000000E+00
  0.00000000E+00  0.00000000E+00  0.00000000E+00
  0.00000000E+00  0.00000000E+00  0.00000000E+00
  0.00000000E+00  0.00000000E+00  0.00000000E+00
  0.00000000E+00  0.00000000E+00  0.00000000E+00
  0.00000000E+00  0.00000000E+00  0.00000000E+00
  0.00000000E+00  0.00000000E+00  0.00000000E+00
  0.00000000E+00  0.00000000E+00  0.00000000E+00
  0.00000000E+00  0.00000000E+00  0.00000000E+00
  0.00000000E+00  0.00000000E+00  0.00000000E+00
  0.00000000E+00  0.00000000E+00  0.00000000E+00
  0.00000000E+00  0.00000000E+00  0.00000000E+00
  0.00000000E+00  0.00000000E+00  0.00000000E+00
  0.00000000E+00  0.00000000E+00  0.00000000E+00
  0.00000000E+00  0.00000000E+00  0.00000000E+00
  0.00000000E+00  0.00000000E+00  0.00000000E+00
  0.00000000E+00  0.00000000E+00  0.00000000E+00
  0.00000000E+00  0.00000000E+00  0.00000000E+00
  0.00000000E+00  0.00000000E+00  0.00000000E+00
  0.00000000E+00  0.00000000E+00  0.00000000E+00
  0.00000000E+00  0.00000000E+00  0.00000000E+00
  0.00000000E+00  0.00000000E+00  0.00000000E+00
  0.00000000E+00  0.00000000E+00  0.00000000E+00
  0.00000000E+00  0.00000000E+00  0.00000000E+00
  0.00000000E+00  0.00000000E+00  0.00000000E+00
  0.00000000E+00  0.00000000E+00  0.00000000E+00
  0.00000000E+00  0.00000000E+00  0.00000000E+00
