Al29 Ag1 Pt1 Au1
1.0
8.087040 0.000000 0.000000
0.000000 8.087040 0.000000
0.000000 0.000000 8.087040
Al Ag Pt Au
29 1 1 1
direct
-0.003338 0.007820 0.009319 Al
0.255700 -0.000280 0.252734 Al
0.259695 0.250523 -0.005371 Al
-0.007512 0.257149 0.257334 Al
0.752896 0.005283 0.258863 Al
0.754415 0.257191 0.004266 Al
0.505080 0.253670 0.254119 Al
-0.006716 0.492441 0.008672 Al
0.240954 0.491394 0.253443 Al
-0.008655 0.738808 0.256602 Al
0.508784 0.495952 0.006793 Al
0.755568 0.499028 0.247951 Al
0.750361 0.750324 -0.000094 Al
0.504533 0.750455 0.259800 Al
-0.008478 0.007380 0.493758 Al
0.243643 0.254555 0.490344 Al
-0.006582 0.255870 0.740308 Al
0.507455 0.005033 0.498558 Al
0.748939 0.001398 0.749578 Al
0.754728 0.243647 0.495804 Al
0.500673 0.254559 0.753123 Al
-0.005441 0.496322 0.492408 Al
0.245968 0.488359 0.745891 Al
0.248718 0.748668 0.489039 Al
-0.020465 0.740450 0.740184 Al
0.513077 0.496400 0.497786 Al
0.748677 0.492748 0.737826 Al
0.751205 0.739797 0.490585 Al
0.501474 0.752015 0.751236 Al
0.248390 0.745122 0.002687 Ag
0.527576 0.020404 0.026959 Pt
0.238677 0.007514 0.739494 Au

0.000000 0.000000 0.000000
0.000000 0.000000 0.000000
0.000000 0.000000 0.000000
0.000000 0.000000 0.000000
0.000000 0.000000 0.000000
0.000000 0.000000 0.000000
0.000000 0.000000 0.000000
0.000000 0.000000 0.000000
0.000000 0.000000 0.000000
0.000000 0.000000 0.000000
0.000000 0.000000 0.000000
0.000000 0.000000 0.000000
0.000000 0.000000 0.000000
0.000000 0.000000 0.000000
0.000000 0.000000 0.000000
0.000000 0.000000 0.000000
0.000000 0.000000 0.000000
0.000000 0.000000 0.000000
0.000000 0.000000 0.000000
0.000000 0.000000 0.000000
0.000000 0.000000 0.000000
0.000000 0.000000 0.000000
0.000000 0.000000 0.000000
0.000000 0.000000 0.000000
0.000000 0.000000 0.000000
0.000000 0.000000 0.000000
0.000000 0.000000 0.000000
0.000000 0.000000 0.000000
0.000000 0.000000 0.000000
0.000000 0.000000 0.000000
0.000000 0.000000 0.000000
0.000000 0.000000 0.000000
