POSCAR_03:FCC Al endpoint 1             
   1.00000000000000     
     7.9894616391000000    0.0000000000000000    0.0000000000000000
     0.0000000000000000    7.9894616391000000    0.0000000000000000
     0.0000000000000000    0.0000000000000000    7.9894616391000000
   Al
  31
Direct
  0.0040070201084023  0.0040070201084023  0.5000000000000000
  0.0115291127454059  0.4920415413354861  0.0000000000000000
 -0.0018309486734330  0.5125500271229378  0.5000000000000000
  0.4920415413354866  0.0115291127454059  0.0000000000000000
  0.5125500271229378 -0.0018309486734330  0.5000000000000000
  0.5063967997233458  0.5063967997233458  0.0000000000000000
  0.5157401918071122  0.5157401918071122  0.5000000000000000
  0.0603888266055418  0.0603888266055418  0.0000000000000000
  0.2534373420684740  0.2534373420684740  0.5000000000000000
  0.2566660793848968  0.7676866224597505  0.0000000000000000
  0.2572312540016872  0.7548721120238442  0.5000000000000000
  0.7676866224597505  0.2566660793848968  0.0000000000000000
  0.7548721120238442  0.2572312540016872  0.5000000000000000
  0.7563864767373720  0.7563864767373720  0.0000000000000000
  0.7484755795347152  0.7484755795347152  0.5000000000000000
  0.2605455068240191 -0.0004880590324407  0.2599994394036130
  0.2605455068240191 -0.0004880590324407  0.7400005605963870
  0.2591650652904122  0.5076118190916061  0.2508952787054333
  0.2591650652904122  0.5076118190916061  0.7491047212945673
  0.7595527983942926  0.0048896933883049  0.2516569376222381
  0.7595527983942926  0.0048896933883049  0.7483430623777619
  0.7552326362769376  0.5057015212693969  0.2616743882478419
  0.7552326362769376  0.5057015212693969  0.7383256117521578
 -0.0004880590324407  0.2605455068240191  0.2599994394036130
 -0.0004880590324407  0.2605455068240191  0.7400005605963870
  0.0048896933883049  0.7595527983942926  0.2516569376222381
  0.0048896933883049  0.7595527983942926  0.7483430623777619
  0.5076118190916061  0.2591650652904122  0.2508952787054333
  0.5076118190916061  0.2591650652904122  0.7491047212945673
  0.5057015212693969  0.7552326362769376  0.2616743882478419
  0.5057015212693969  0.7552326362769376  0.7383256117521578
 
  0.00000000E+00  0.00000000E+00  0.00000000E+00
  0.00000000E+00  0.00000000E+00  0.00000000E+00
  0.00000000E+00  0.00000000E+00  0.00000000E+00
  0.00000000E+00  0.00000000E+00  0.00000000E+00
  0.00000000E+00  0.00000000E+00  0.00000000E+00
  0.00000000E+00  0.00000000E+00  0.00000000E+00
  0.00000000E+00  0.00000000E+00  0.00000000E+00
  0.00000000E+00  0.00000000E+00  0.00000000E+00
  0.00000000E+00  0.00000000E+00  0.00000000E+00
  0.00000000E+00  0.00000000E+00  0.00000000E+00
  0.00000000E+00  0.00000000E+00  0.00000000E+00
  0.00000000E+00  0.00000000E+00  0.00000000E+00
  0.00000000E+00  0.00000000E+00  0.00000000E+00
  0.00000000E+00  0.00000000E+00  0.00000000E+00
  0.00000000E+00  0.00000000E+00  0.00000000E+00
  0.00000000E+00  0.00000000E+00  0.00000000E+00
  0.00000000E+00  0.00000000E+00  0.00000000E+00
  0.00000000E+00  0.00000000E+00  0.00000000E+00
  0.00000000E+00  0.00000000E+00  0.00000000E+00
  0.00000000E+00  0.00000000E+00  0.00000000E+00
  0.00000000E+00  0.00000000E+00  0.00000000E+00
  0.00000000E+00  0.00000000E+00  0.00000000E+00
  0.00000000E+00  0.00000000E+00  0.00000000E+00
  0.00000000E+00  0.00000000E+00  0.00000000E+00
  0.00000000E+00  0.00000000E+00  0.00000000E+00
  0.00000000E+00  0.00000000E+00  0.00000000E+00
  0.00000000E+00  0.00000000E+00  0.00000000E+00
  0.00000000E+00  0.00000000E+00  0.00000000E+00
  0.00000000E+00  0.00000000E+00  0.00000000E+00
  0.00000000E+00  0.00000000E+00  0.00000000E+00
  0.00000000E+00  0.00000000E+00  0.00000000E+00
