Mg1 Al32                                
   1.00000000000000     
     8.0870519999999999    0.0000000000000000    0.0000000000000000
     0.0000000000000000    8.0870519999999999    0.0000000000000000
     0.0000000000000000    0.0000000000000000    8.0870519999999999
   Al   Mg
  32   1
Direct
  0.0029412343641878  0.0029412343641878  0.0029412343641878
  0.2515085708141766 -0.0011710094753539  0.2515085708141766
  0.2515085708141766  0.2515085708141766 -0.0011710094753539
 -0.0011710094753539  0.2515085708141766  0.2515085708141766
  0.4936511262314780 -0.0063708538128436 -0.0063708538128436
  0.7415606781856368  0.0167924817885402  0.2434338823964146
  0.7415606781856368  0.2434338823964146  0.0167924817885402
  0.4906546475306691  0.2489945401147604  0.2489945401147604
 -0.0063708538128436  0.4936511262314780 -0.0063708538128436
  0.2489945401147604  0.4906546475306691  0.2489945401147604
  0.2434338823964146  0.7415606781856368  0.0167924817885402
  0.0167924817885402  0.7415606781856368  0.2434338823964146
  0.5058078748508035  0.5058078748508035 -0.0205311106679276
  0.7411318313775509  0.4824558653700985  0.2402349722796791
  0.7555482034926615  0.7555482034926615  0.0451544360028713
  0.4824558653700985  0.7411318313775509  0.2402349722796791
 -0.0063708538128436 -0.0063708538128436  0.4936511262314780
  0.2434338823964146  0.0167924817885402  0.7415606781856368
  0.2489945401147604  0.2489945401147604  0.4906546475306691
  0.0167924817885402  0.2434338823964146  0.7415606781856368
  0.5058078748508035 -0.0205311106679276  0.5058078748508035
  0.7555482034926615  0.0451544360028713  0.7555482034926615
  0.7411318313775509  0.2402349722796791  0.4824558653700985
  0.4824558653700985  0.2402349722796791  0.7411318313775509
 -0.0205311106679276  0.5058078748508035  0.5058078748508035
  0.2402349722796791  0.4824558653700985  0.7411318313775509
  0.2402349722796791  0.7411318313775509  0.4824558653700985
  0.0451544360028713  0.7555482034926615  0.7555482034926615
  0.5072843621898928  0.5072843621898928  0.5072843621898928
  0.7521138433507037  0.4132763912379513  0.7521138433507037
  0.7521138433507037  0.7521138433507037  0.4132763912379513
  0.4132763912379513  0.7521138433507037  0.7521138433507037
  0.7244841421698931  0.7244841421698931  0.7244841421698931
 
  0.00000000E+00  0.00000000E+00  0.00000000E+00
  0.00000000E+00  0.00000000E+00  0.00000000E+00
  0.00000000E+00  0.00000000E+00  0.00000000E+00
  0.00000000E+00  0.00000000E+00  0.00000000E+00
  0.00000000E+00  0.00000000E+00  0.00000000E+00
  0.00000000E+00  0.00000000E+00  0.00000000E+00
  0.00000000E+00  0.00000000E+00  0.00000000E+00
  0.00000000E+00  0.00000000E+00  0.00000000E+00
  0.00000000E+00  0.00000000E+00  0.00000000E+00
  0.00000000E+00  0.00000000E+00  0.00000000E+00
  0.00000000E+00  0.00000000E+00  0.00000000E+00
  0.00000000E+00  0.00000000E+00  0.00000000E+00
  0.00000000E+00  0.00000000E+00  0.00000000E+00
  0.00000000E+00  0.00000000E+00  0.00000000E+00
  0.00000000E+00  0.00000000E+00  0.00000000E+00
  0.00000000E+00  0.00000000E+00  0.00000000E+00
  0.00000000E+00  0.00000000E+00  0.00000000E+00
  0.00000000E+00  0.00000000E+00  0.00000000E+00
  0.00000000E+00  0.00000000E+00  0.00000000E+00
  0.00000000E+00  0.00000000E+00  0.00000000E+00
  0.00000000E+00  0.00000000E+00  0.00000000E+00
  0.00000000E+00  0.00000000E+00  0.00000000E+00
  0.00000000E+00  0.00000000E+00  0.00000000E+00
  0.00000000E+00  0.00000000E+00  0.00000000E+00
  0.00000000E+00  0.00000000E+00  0.00000000E+00
  0.00000000E+00  0.00000000E+00  0.00000000E+00
  0.00000000E+00  0.00000000E+00  0.00000000E+00
  0.00000000E+00  0.00000000E+00  0.00000000E+00
  0.00000000E+00  0.00000000E+00  0.00000000E+00
  0.00000000E+00  0.00000000E+00  0.00000000E+00
  0.00000000E+00  0.00000000E+00  0.00000000E+00
  0.00000000E+00  0.00000000E+00  0.00000000E+00
  0.00000000E+00  0.00000000E+00  0.00000000E+00
