Mg1 Al32
1.0
8.087052 0.000000 0.000000
0.000000 8.087052 0.000000
0.000000 0.000000 8.087052
Al Mg
32 1
direct
0.009701 0.009701 0.009701 Al
0.250790 0.015724 0.250790 Al
0.250790 0.250790 0.015724 Al
0.015724 0.250790 0.250790 Al
0.487241 0.004662 0.004662 Al
0.735719 0.027698 0.246008 Al
0.735719 0.246008 0.027698 Al
0.479332 0.242350 0.242350 Al
0.004662 0.487241 0.004662 Al
0.242350 0.479332 0.242350 Al
0.246008 0.735719 0.027698 Al
0.027698 0.735719 0.246008 Al
0.488182 0.488182 0.005122 Al
0.756590 0.482029 0.236561 Al
0.768514 0.768514 0.048009 Al
0.482029 0.756590 0.236561 Al
0.004662 0.004662 0.487241 Al
0.246008 0.027698 0.735719 Al
0.242350 0.242350 0.479332 Al
0.027698 0.246008 0.735719 Al
0.488182 0.005122 0.488182 Al
0.768514 0.048009 0.768514 Al
0.756590 0.236561 0.482029 Al
0.482029 0.236561 0.756590 Al
0.005122 0.488182 0.488182 Al
0.236561 0.482029 0.756590 Al
0.236561 0.756590 0.482029 Al
0.048009 0.768514 0.768514 Al
0.489215 0.489215 0.489215 Al
0.764585 0.400448 0.764585 Al
0.764585 0.764585 0.400448 Al
0.400448 0.764585 0.764585 Al
0.660000 0.660000 0.660000 Mg

0.000000 0.000000 0.000000
0.000000 0.000000 0.000000
0.000000 0.000000 0.000000
0.000000 0.000000 0.000000
0.000000 0.000000 0.000000
0.000000 0.000000 0.000000
0.000000 0.000000 0.000000
0.000000 0.000000 0.000000
0.000000 0.000000 0.000000
0.000000 0.000000 0.000000
0.000000 0.000000 0.000000
0.000000 0.000000 0.000000
0.000000 0.000000 0.000000
0.000000 0.000000 0.000000
0.000000 0.000000 0.000000
0.000000 0.000000 0.000000
0.000000 0.000000 0.000000
0.000000 0.000000 0.000000
0.000000 0.000000 0.000000
0.000000 0.000000 0.000000
0.000000 0.000000 0.000000
0.000000 0.000000 0.000000
0.000000 0.000000 0.000000
0.000000 0.000000 0.000000
0.000000 0.000000 0.000000
0.000000 0.000000 0.000000
0.000000 0.000000 0.000000
0.000000 0.000000 0.000000
0.000000 0.000000 0.000000
0.000000 0.000000 0.000000
0.000000 0.000000 0.000000
0.000000 0.000000 0.000000
0.000000 0.000000 0.000000
