endpoint 1                              
   1.00000000000000     
     7.9480167636007391   -0.0007586691620263   -0.0954348958144624
    -0.0007360202719877    7.9259131819932955    0.0005941604490818
    -0.0954233651712531    0.0006310836588995    7.9482688907697643
   8   8  23
Direct
  0.0256771868318713  0.0035444391519018  0.9917275902941253
  0.0236375969512622  0.9967484048954084  0.4803539100414492
  0.9833421941164712  0.5049382155985035  0.0282772731616412
  0.9794116578287654  0.5021856821691859  0.5336400916089515
  0.5154356172298104  0.0000372479693117  0.9762847051460010
  0.5245041575000442  0.9994020258923009  0.4782692645279397
  0.4830436005603625  0.4997854570610557  0.0294464967529547
  0.4684628247616918  0.4996282153539910  0.5184344181058567
  0.2511402669789203  0.2507259887091782  0.2548784309516375
  0.2505252744840483  0.2495539088383797  0.7554789957880673
  0.2508301296276759  0.7491895497223009  0.2544321882125443
  0.2493454356560230  0.7498261306510049  0.7550470218341043
  0.7549972411438532  0.2487775600485887  0.2572319978659947
  0.7529359552795842  0.2470819671808326  0.7519229455128096
  0.7505411912893450  0.7502653343789870  0.2534283260718436
  0.7478441038675943  0.7492766438870928  0.7548814407153609
  0.2854533848481643  0.2144284807404016  0.0069444702240123
  0.9970483247859441  0.2153390125490431  0.2152803987634314
  0.2727677544509470  0.9999129720279342  0.2947721877032298
  0.2120877258232718  0.2859444299537134  0.5036417915052094
  0.9980677787227108  0.2923471556027861  0.7950487228467252
  0.2032022156226053  0.0002838445873807  0.7316010639968468
  0.2911540974771985  0.7835435515387938  0.0059001327614929
  0.9984263732164271  0.7839205964692911  0.2136707379303155
  0.2301254392070926  0.4993077794329032  0.2203809091393116
  0.2067660181308834  0.7142304410587751  0.5032949179587315
  0.9998693576915010  0.7097846293533711  0.7935555989688018
  0.2949115600496525  0.4997249340680747  0.7791286739620191
  0.5041677730361290  0.2834912812545214  0.2868789994573197
  0.7106116899674543  0.0029736270934463  0.2227113228634407
  0.7868034759964596  0.2187880573369712  0.5052044659196719
  0.5007239199108401  0.2075796163657907  0.7234237621674294
  0.7802347788046861  0.0021366052952586  0.7978201325020472
  0.7038525369622342  0.7163712853216497  0.0038289479725978
  0.5015804001659372  0.7177877324745588  0.2989972646181261
  0.7890311608346700  0.4978230473665095  0.2751051754030906
  0.7926407455594362  0.7848833424382946  0.5049395440783818
  0.4974251595977160  0.7915857431770028  0.7107638285658944
  0.7153302996741346  0.4976678520659062  0.7191839810801337
 
  0.00000000E+00  0.00000000E+00  0.00000000E+00
  0.00000000E+00  0.00000000E+00  0.00000000E+00
  0.00000000E+00  0.00000000E+00  0.00000000E+00
  0.00000000E+00  0.00000000E+00  0.00000000E+00
  0.00000000E+00  0.00000000E+00  0.00000000E+00
  0.00000000E+00  0.00000000E+00  0.00000000E+00
  0.00000000E+00  0.00000000E+00  0.00000000E+00
  0.00000000E+00  0.00000000E+00  0.00000000E+00
  0.00000000E+00  0.00000000E+00  0.00000000E+00
  0.00000000E+00  0.00000000E+00  0.00000000E+00
  0.00000000E+00  0.00000000E+00  0.00000000E+00
  0.00000000E+00  0.00000000E+00  0.00000000E+00
  0.00000000E+00  0.00000000E+00  0.00000000E+00
  0.00000000E+00  0.00000000E+00  0.00000000E+00
  0.00000000E+00  0.00000000E+00  0.00000000E+00
  0.00000000E+00  0.00000000E+00  0.00000000E+00
  0.00000000E+00  0.00000000E+00  0.00000000E+00
  0.00000000E+00  0.00000000E+00  0.00000000E+00
  0.00000000E+00  0.00000000E+00  0.00000000E+00
  0.00000000E+00  0.00000000E+00  0.00000000E+00
  0.00000000E+00  0.00000000E+00  0.00000000E+00
  0.00000000E+00  0.00000000E+00  0.00000000E+00
  0.00000000E+00  0.00000000E+00  0.00000000E+00
  0.00000000E+00  0.00000000E+00  0.00000000E+00
  0.00000000E+00  0.00000000E+00  0.00000000E+00
  0.00000000E+00  0.00000000E+00  0.00000000E+00
  0.00000000E+00  0.00000000E+00  0.00000000E+00
  0.00000000E+00  0.00000000E+00  0.00000000E+00
  0.00000000E+00  0.00000000E+00  0.00000000E+00
  0.00000000E+00  0.00000000E+00  0.00000000E+00
  0.00000000E+00  0.00000000E+00  0.00000000E+00
  0.00000000E+00  0.00000000E+00  0.00000000E+00
  0.00000000E+00  0.00000000E+00  0.00000000E+00
  0.00000000E+00  0.00000000E+00  0.00000000E+00
  0.00000000E+00  0.00000000E+00  0.00000000E+00
  0.00000000E+00  0.00000000E+00  0.00000000E+00
  0.00000000E+00  0.00000000E+00  0.00000000E+00
  0.00000000E+00  0.00000000E+00  0.00000000E+00
  0.00000000E+00  0.00000000E+00  0.00000000E+00
