Al                                      
   1.00000000000000     
    10.9063935956658007    0.0000000000000000    0.0000000000000000
     0.0000000000000000   10.9063935956658007    0.0000000000000000
     0.0000000000000000    0.0000000000000000   10.9063935956658025
   Al   Mg
     1   106
Direct
  0.0004692792015248  0.0000000000000000  0.0004692792015248
  0.0012863663233560  0.0000000000000000  0.3339649805942244
  0.0003689400763847  0.0000000000000000  0.6656684891716509
  0.0003235872868856  0.3337670493289551  0.0003235872868856
  0.0002699849062324  0.3335322379997905  0.3338121302136656
  0.0003374003541552  0.3334561205100002  0.6658956338726867
  0.0003235872868856  0.6662329506710449  0.0003235872868856
  0.0002699849062324  0.6664677620002095  0.3338121302136656
  0.0003374003541552  0.6665438794899998  0.6658956338726867
  0.3339649805942244  0.0000000000000000  0.0012863663233560
  0.1698598326755558  0.0000000000000000  0.1698598326755558
  0.3337173501147035  0.0000000000000000  0.6651399708939323
  0.3338121302136656  0.3335322379997905  0.0002699849062324
  0.3336138718877493  0.3323052951459502  0.3336138718877493
  0.3336531930726991  0.3332529469436381  0.6660166847698150
  0.3338121302136656  0.6664677620002095  0.0002699849062324
  0.3336138718877493  0.6676947048540498  0.3336138718877493
  0.3336531930726991  0.6667470530563619  0.6660166847698150
  0.6656684891716509  0.0000000000000000  0.0003689400763847
  0.6651399708939323  0.0000000000000000  0.3337173501147035
  0.6657671427392700  0.0000000000000000  0.6657671427392700
  0.6658956338726867  0.3334561205100002  0.0003374003541552
  0.6660166847698150  0.3332529469436381  0.3336531930726991
  0.6660544714216527  0.3333028888496159  0.6660544714216527
  0.6658956338726867  0.6665438794899998  0.0003374003541552
  0.6660166847698150  0.6667470530563619  0.3336531930726991
  0.6660544714216527  0.6666971111503841  0.6660544714216527
  0.0008236274573150  0.1670264665617012  0.1681334160373993
  0.0008353626507400  0.1663870696976915  0.4993961554993334
  0.0004172398532347  0.1672834646446333  0.8324698825138199
  0.0004366375392379  0.5000000000000000  0.1672447162684776
  0.0004575223293273  0.5000000000000000  0.4997943582953610
  0.0001676052322210  0.5000000000000000  0.8329882259940220
  0.0008236274573150  0.8329735334382988  0.1681334160373993
  0.0008353626507400  0.8336129303023085  0.4993961554993334
  0.0004172398532347  0.8327165353553667  0.8324698825138199
  0.3337010635091673  0.1652262522586767  0.1689282913233896
  0.3335556698200790  0.1647992138341792  0.4979769666286558
  0.3337448464082300  0.1666304244809567  0.8329389871406363
  0.3336508563696441  0.5000000000000000  0.1673617424937390
  0.3335318092391049  0.5000000000000000  0.4995280172843124
  0.3336736262761093  0.5000000000000000  0.8330478403754711
  0.3337010635091673  0.8347737477413233  0.1689282913233896
  0.3335556698200790  0.8352007861658208  0.4979769666286558
  0.3337448464082300  0.8333695755190433  0.8329389871406363
  0.6654983622952315  0.1664358568253590  0.1675740475229759
  0.6655263073550586  0.1662855101793639  0.4994268201016681
  0.6658807464425465  0.1667912658326358  0.8329728054725720
  0.6659491977630125  0.5000000000000000  0.1671866721073201
  0.6660197901399556  0.5000000000000000  0.4997562249738934
  0.6662430708263400  0.5000000000000000  0.8330885836343782
  0.6654983622952315  0.8335641431746410  0.1675740475229759
  0.6655263073550586  0.8337144898206361  0.4994268201016681
  0.6658807464425465  0.8332087341673642  0.8329728054725720
  0.1690756152192492  0.0000000000000000  0.4978886687026360
  0.1679533727246749  0.0000000000000000  0.8326246741674552
  0.1676071969247701  0.3329198005360254  0.1676071969247701
  0.1674643416349895  0.3327881054021304  0.4994558599187400
  0.1673093362930942  0.3333205926919405  0.8329271042880251
  0.1676071969247701  0.6670801994639746  0.1676071969247701
  0.1674643416349895  0.6672118945978696  0.4994558599187400
  0.1673093362930942  0.6666794073080595  0.8329271042880251
  0.4978886687026360  0.0000000000000000  0.1690756152192492
  0.4976926721831774  0.0000000000000000  0.4976926721831774
  0.4995384118969568  0.0000000000000000  0.8330487995267717
  0.4994558599187400  0.3327881054021304  0.1674643416349895
  0.4994113931274100  0.3325855967882632  0.4994113931274100
  0.4997832775713746  0.3332072250620826  0.8331104468328476
  0.4994558599187400  0.6672118945978696  0.1674643416349895
  0.4994113931274100  0.6674144032117368  0.4994113931274100
  0.4997832775713746  0.6667927749379174  0.8331104468328476
  0.8326246741674552  0.0000000000000000  0.1679533727246749
  0.8330487995267717  0.0000000000000000  0.4995384118969568
  0.8324086653291332  0.0000000000000000  0.8324086653291332
  0.8329271042880251  0.3333205926919405  0.1673093362930942
  0.8331104468328476  0.3332072250620826  0.4997832775713746
  0.8329644560025145  0.3335267464316658  0.8329644560025145
  0.8329271042880251  0.6666794073080595  0.1673093362930942
  0.8331104468328476  0.6667927749379174  0.4997832775713746
  0.8329644560025145  0.6664732535683342  0.8329644560025145
  0.1681334160373993  0.1670264665617012  0.0008236274573150
  0.1689282913233896  0.1652262522586767  0.3337010635091673
  0.1675740475229759  0.1664358568253590  0.6654983622952315
  0.1672447162684776  0.5000000000000000  0.0004366375392379
  0.1673617424937390  0.5000000000000000  0.3336508563696441
  0.1671866721073201  0.5000000000000000  0.6659491977630125
  0.1681334160373993  0.8329735334382988  0.0008236274573150
  0.1689282913233896  0.8347737477413233  0.3337010635091673
  0.1675740475229759  0.8335641431746410  0.6654983622952315
  0.4993961554993334  0.1663870696976915  0.0008353626507400
  0.4979769666286558  0.1647992138341792  0.3335556698200790
  0.4994268201016681  0.1662855101793639  0.6655263073550586
  0.4997943582953610  0.5000000000000000  0.0004575223293273
  0.4995280172843124  0.5000000000000000  0.3335318092391049
  0.4997562249738934  0.5000000000000000  0.6660197901399556
  0.4993961554993334  0.8336129303023085  0.0008353626507400
  0.4979769666286558  0.8352007861658208  0.3335556698200790
  0.4994268201016681  0.8337144898206361  0.6655263073550586
  0.8324698825138199  0.1672834646446333  0.0004172398532347
  0.8329389871406363  0.1666304244809567  0.3337448464082300
  0.8329728054725720  0.1667912658326358  0.6658807464425465
  0.8329882259940220  0.5000000000000000  0.0001676052322210
  0.8330478403754711  0.5000000000000000  0.3336736262761093
  0.8330885836343782  0.5000000000000000  0.6662430708263400
  0.8324698825138199  0.8327165353553667  0.0004172398532347
  0.8329389871406363  0.8333695755190433  0.3337448464082300
  0.8329728054725720  0.8332087341673642  0.6658807464425465
 
  0.00000000E+00  0.00000000E+00  0.00000000E+00
  0.00000000E+00  0.00000000E+00  0.00000000E+00
  0.00000000E+00  0.00000000E+00  0.00000000E+00
  0.00000000E+00  0.00000000E+00  0.00000000E+00
  0.00000000E+00  0.00000000E+00  0.00000000E+00
  0.00000000E+00  0.00000000E+00  0.00000000E+00
  0.00000000E+00  0.00000000E+00  0.00000000E+00
  0.00000000E+00  0.00000000E+00  0.00000000E+00
  0.00000000E+00  0.00000000E+00  0.00000000E+00
  0.00000000E+00  0.00000000E+00  0.00000000E+00
  0.00000000E+00  0.00000000E+00  0.00000000E+00
  0.00000000E+00  0.00000000E+00  0.00000000E+00
  0.00000000E+00  0.00000000E+00  0.00000000E+00
  0.00000000E+00  0.00000000E+00  0.00000000E+00
  0.00000000E+00  0.00000000E+00  0.00000000E+00
  0.00000000E+00  0.00000000E+00  0.00000000E+00
  0.00000000E+00  0.00000000E+00  0.00000000E+00
  0.00000000E+00  0.00000000E+00  0.00000000E+00
  0.00000000E+00  0.00000000E+00  0.00000000E+00
  0.00000000E+00  0.00000000E+00  0.00000000E+00
  0.00000000E+00  0.00000000E+00  0.00000000E+00
  0.00000000E+00  0.00000000E+00  0.00000000E+00
  0.00000000E+00  0.00000000E+00  0.00000000E+00
  0.00000000E+00  0.00000000E+00  0.00000000E+00
  0.00000000E+00  0.00000000E+00  0.00000000E+00
  0.00000000E+00  0.00000000E+00  0.00000000E+00
  0.00000000E+00  0.00000000E+00  0.00000000E+00
  0.00000000E+00  0.00000000E+00  0.00000000E+00
  0.00000000E+00  0.00000000E+00  0.00000000E+00
  0.00000000E+00  0.00000000E+00  0.00000000E+00
  0.00000000E+00  0.00000000E+00  0.00000000E+00
  0.00000000E+00  0.00000000E+00  0.00000000E+00
  0.00000000E+00  0.00000000E+00  0.00000000E+00
  0.00000000E+00  0.00000000E+00  0.00000000E+00
  0.00000000E+00  0.00000000E+00  0.00000000E+00
  0.00000000E+00  0.00000000E+00  0.00000000E+00
  0.00000000E+00  0.00000000E+00  0.00000000E+00
  0.00000000E+00  0.00000000E+00  0.00000000E+00
  0.00000000E+00  0.00000000E+00  0.00000000E+00
  0.00000000E+00  0.00000000E+00  0.00000000E+00
  0.00000000E+00  0.00000000E+00  0.00000000E+00
  0.00000000E+00  0.00000000E+00  0.00000000E+00
  0.00000000E+00  0.00000000E+00  0.00000000E+00
  0.00000000E+00  0.00000000E+00  0.00000000E+00
  0.00000000E+00  0.00000000E+00  0.00000000E+00
  0.00000000E+00  0.00000000E+00  0.00000000E+00
  0.00000000E+00  0.00000000E+00  0.00000000E+00
  0.00000000E+00  0.00000000E+00  0.00000000E+00
  0.00000000E+00  0.00000000E+00  0.00000000E+00
  0.00000000E+00  0.00000000E+00  0.00000000E+00
  0.00000000E+00  0.00000000E+00  0.00000000E+00
  0.00000000E+00  0.00000000E+00  0.00000000E+00
  0.00000000E+00  0.00000000E+00  0.00000000E+00
  0.00000000E+00  0.00000000E+00  0.00000000E+00
  0.00000000E+00  0.00000000E+00  0.00000000E+00
  0.00000000E+00  0.00000000E+00  0.00000000E+00
  0.00000000E+00  0.00000000E+00  0.00000000E+00
  0.00000000E+00  0.00000000E+00  0.00000000E+00
  0.00000000E+00  0.00000000E+00  0.00000000E+00
  0.00000000E+00  0.00000000E+00  0.00000000E+00
  0.00000000E+00  0.00000000E+00  0.00000000E+00
  0.00000000E+00  0.00000000E+00  0.00000000E+00
  0.00000000E+00  0.00000000E+00  0.00000000E+00
  0.00000000E+00  0.00000000E+00  0.00000000E+00
  0.00000000E+00  0.00000000E+00  0.00000000E+00
  0.00000000E+00  0.00000000E+00  0.00000000E+00
  0.00000000E+00  0.00000000E+00  0.00000000E+00
  0.00000000E+00  0.00000000E+00  0.00000000E+00
  0.00000000E+00  0.00000000E+00  0.00000000E+00
  0.00000000E+00  0.00000000E+00  0.00000000E+00
  0.00000000E+00  0.00000000E+00  0.00000000E+00
  0.00000000E+00  0.00000000E+00  0.00000000E+00
  0.00000000E+00  0.00000000E+00  0.00000000E+00
  0.00000000E+00  0.00000000E+00  0.00000000E+00
  0.00000000E+00  0.00000000E+00  0.00000000E+00
  0.00000000E+00  0.00000000E+00  0.00000000E+00
  0.00000000E+00  0.00000000E+00  0.00000000E+00
  0.00000000E+00  0.00000000E+00  0.00000000E+00
  0.00000000E+00  0.00000000E+00  0.00000000E+00
  0.00000000E+00  0.00000000E+00  0.00000000E+00
  0.00000000E+00  0.00000000E+00  0.00000000E+00
  0.00000000E+00  0.00000000E+00  0.00000000E+00
  0.00000000E+00  0.00000000E+00  0.00000000E+00
  0.00000000E+00  0.00000000E+00  0.00000000E+00
  0.00000000E+00  0.00000000E+00  0.00000000E+00
  0.00000000E+00  0.00000000E+00  0.00000000E+00
  0.00000000E+00  0.00000000E+00  0.00000000E+00
  0.00000000E+00  0.00000000E+00  0.00000000E+00
  0.00000000E+00  0.00000000E+00  0.00000000E+00
  0.00000000E+00  0.00000000E+00  0.00000000E+00
  0.00000000E+00  0.00000000E+00  0.00000000E+00
  0.00000000E+00  0.00000000E+00  0.00000000E+00
  0.00000000E+00  0.00000000E+00  0.00000000E+00
  0.00000000E+00  0.00000000E+00  0.00000000E+00
  0.00000000E+00  0.00000000E+00  0.00000000E+00
  0.00000000E+00  0.00000000E+00  0.00000000E+00
  0.00000000E+00  0.00000000E+00  0.00000000E+00
  0.00000000E+00  0.00000000E+00  0.00000000E+00
  0.00000000E+00  0.00000000E+00  0.00000000E+00
  0.00000000E+00  0.00000000E+00  0.00000000E+00
  0.00000000E+00  0.00000000E+00  0.00000000E+00
  0.00000000E+00  0.00000000E+00  0.00000000E+00
  0.00000000E+00  0.00000000E+00  0.00000000E+00
  0.00000000E+00  0.00000000E+00  0.00000000E+00
  0.00000000E+00  0.00000000E+00  0.00000000E+00
  0.00000000E+00  0.00000000E+00  0.00000000E+00
  0.00000000E+00  0.00000000E+00  0.00000000E+00
