Ga3 Bi1 As3                             
   1.00000000000000     
     5.6265999999999998    0.0000000000000000    0.0000000000000000
     0.0000000000000000    5.6265999999999998    0.0000000000000000
     0.0000000000000000    0.0000000000000000    5.6265999999999998
   Ga   Bi   As
   3   1   3
Direct
  0.5205377158170467  0.5205377158170467 -0.0107136873049763
 -0.0107136873049763  0.5205377158170467  0.5205377158170467
  0.5205377158170467 -0.0107136873049763  0.5205377158170467
  0.1671470968033723  0.1671470968033723  0.1671470968033723
  0.7806846461664031  0.7806846461664031  0.2411218665347047
  0.2411218665347047  0.7806846461664031  0.7806846461664031
  0.7806846461664031  0.2411218665347047  0.7806846461664031
 
  0.00000000E+00  0.00000000E+00  0.00000000E+00
  0.00000000E+00  0.00000000E+00  0.00000000E+00
  0.00000000E+00  0.00000000E+00  0.00000000E+00
  0.00000000E+00  0.00000000E+00  0.00000000E+00
  0.00000000E+00  0.00000000E+00  0.00000000E+00
  0.00000000E+00  0.00000000E+00  0.00000000E+00
  0.00000000E+00  0.00000000E+00  0.00000000E+00
