ENCUT = 300.54625
IBRION = -1
ISIF = 2
ISMEAR = 1
LCHARG = False
LWAVE = True
NSW = 0
PREC = Accurate
SIGMA = 0.2
