Al                                      
   1.00000000000000     
    10.9063935956658007    0.0000000000000000    0.0000000000000000
     0.0000000000000000   10.9063935956658007    0.0000000000000000
     0.0000000000000000    0.0000000000000000   10.9063935956658025
   Al   Mg
     1   106
Direct
  0.1625661486646166  0.0000000000000000  0.1625661486646166
  0.9992184116190330  0.0000000000000000  0.3323860896098907
  0.9997696643198140  0.0000000000000000  0.6678543606094962
  0.9995419142812523  0.3327465672817809  0.9995419142812523
  0.9995170162403042  0.3336564732000866  0.3336975489370957
  0.9997086077475643  0.3331179484673541  0.6669967900673583
  0.9995419142812523  0.6672534327182191  0.9995419142812523
  0.9995170162403042  0.6663435267999134  0.3336975489370957
  0.9997086077475643  0.6668820515326459  0.6669967900673583
  0.3323860896098907  0.0000000000000000  0.9992184116190330
  0.3332062620661702  0.0000000000000000  0.3332062620661702
  0.3331577651530395  0.0000000000000000  0.6670272894396376
  0.3336975489370957  0.3336564732000866  0.9995170162403042
  0.3333757658415450  0.3333881963259557  0.3333757658415450
  0.3331788201067809  0.3332144337763054  0.6669872328068323
  0.3336975489370957  0.6663435267999134  0.9995170162403042
  0.3333757658415450  0.6666118036740443  0.3333757658415450
  0.3331788201067809  0.6667855662236946  0.6669872328068323
  0.6678543606094962  0.0000000000000000  0.9997696643198140
  0.6670272894396376  0.0000000000000000  0.3331577651530395
  0.6671954455165192  0.0000000000000000  0.6671954455165192
  0.6669967900673583  0.3331179484673541  0.9997086077475643
  0.6669872328068323  0.3332144337763054  0.3331788201067809
  0.6670942018108548  0.3331064893704365  0.6670942018108548
  0.6669967900673583  0.6668820515326459  0.9997086077475643
  0.6669872328068323  0.6667855662236946  0.3331788201067809
  0.6670942018108548  0.6668935106295635  0.6670942018108548
  0.9990716352962252  0.1665093733245726  0.1649513454238161
  0.9995912751800446  0.1664451400549538  0.5002378454339791
  0.9997468652938792  0.1650254990907527  0.8350970694672597
  0.9995910746888157  0.5000000000000000  0.1661981854111971
  0.9996659000010339  0.5000000000000000  0.5005420948605632
  0.9996700205579643  0.5000000000000000  0.8334319244803794
  0.9990716352962252  0.8334906266754203  0.1649513454238161
  0.9995912751800446  0.8335548599450462  0.5002378454339791
  0.9997468652938792  0.8349745009092473  0.8350970694672597
  0.3334600833610892  0.1671003855897268  0.1661367362438284
  0.3332776529563972  0.1666714475449353  0.5003563146049785
  0.3329319645041267  0.1665332527234895  0.8334872517640548
  0.3333056853901795  0.5000000000000000  0.1663273502265454
  0.3332715015473937  0.5000000000000000  0.5003264046702114
  0.3331251705565137  0.5000000000000000  0.8332223376942167
  0.3334600833610892  0.8328996144102732  0.1661367362438284
  0.3332776529563972  0.8333285524550647  0.5003563146049785
  0.3329319645041267  0.8334667472765105  0.8334872517640548
  0.6675734729032854  0.1662375982466244  0.1660646141097999
  0.6671052118274332  0.1664867290250172  0.5003242663460199
  0.6675777369196965  0.1661994789888368  0.8337548775001125
  0.6670711840544641  0.5000000000000000  0.1662583141489051
  0.6669492698125978  0.5000000000000000  0.5002523995755297
  0.6672263283758042  0.5000000000000000  0.8334323229159182
  0.6675734729032854  0.8337624017533756  0.1660646141097999
  0.6671052118274332  0.8335132709749828  0.5003242663460199
  0.6675777369196965  0.8338005210111632  0.8337548775001125
  0.1661178895417521  0.0000000000000000  0.5003716447779212
  0.1644491963217334  0.0000000000000000  0.8353424107876393
  0.1661414088525817  0.3334257594838519  0.1661414088525817
  0.1663185920548784  0.3333447290130991  0.5005378249932804
  0.1660908359888680  0.3330665353842690  0.8333637006315797
  0.1661414088525817  0.6665742405161552  0.1661414088525817
  0.1663185920548784  0.6666552709869009  0.5005378249932804
  0.1660908359888680  0.6669334646157310  0.8333637006315797
  0.5003716447779212  0.0000000000000000  0.1661178895417521
  0.5004203311074136  0.0000000000000000  0.5004203311074136
  0.5003179653787697  0.0000000000000000  0.8334493399389018
  0.5005378249932804  0.3333447290130991  0.1663185920548784
  0.5003278220293623  0.3332839390596831  0.5003278220293623
  0.5004017139069177  0.3331767295061780  0.8332730569695954
  0.5005378249932804  0.6666552709869009  0.1663185920548784
  0.5003278220293623  0.6667160609403169  0.5003278220293623
  0.5004017139069177  0.6668232704938220  0.8332730569695954
  0.8353424107876393  0.0000000000000000  0.1644491963217334
  0.8334493399389018  0.0000000000000000  0.5003179653787697
  0.8353487249605820  0.0000000000000000  0.8353487249605820
  0.8333637006315797  0.3330665353842690  0.1660908359888680
  0.8332730569695954  0.3331767295061780  0.5004017139069177
  0.8336677232067586  0.3326629087165145  0.8336677232067586
  0.8333637006315797  0.6669334646157310  0.1660908359888680
  0.8332730569695954  0.6668232704938220  0.5004017139069177
  0.8336677232067586  0.6673370912834855  0.8336677232067586
  0.1649513454238161  0.1665093733245726  0.9990716352962252
  0.1661367362438284  0.1671003855897268  0.3334600833610892
  0.1660646141097999  0.1662375982466244  0.6675734729032854
  0.1661981854111971  0.5000000000000000  0.9995910746888157
  0.1663273502265454  0.5000000000000000  0.3333056853901795
  0.1662583141489051  0.5000000000000000  0.6670711840544641
  0.1649513454238161  0.8334906266754203  0.9990716352962252
  0.1661367362438284  0.8328996144102732  0.3334600833610892
  0.1660646141097999  0.8337624017533756  0.6675734729032854
  0.5002378454339791  0.1664451400549538  0.9995912751800446
  0.5003563146049785  0.1666714475449353  0.3332776529563972
  0.5003242663460199  0.1664867290250172  0.6671052118274332
  0.5005420948605632  0.5000000000000000  0.9996659000010339
  0.5003264046702114  0.5000000000000000  0.3332715015473937
  0.5002523995755297  0.5000000000000000  0.6669492698125978
  0.5002378454339791  0.8335548599450462  0.9995912751800446
  0.5003563146049785  0.8333285524550647  0.3332776529563972
  0.5003242663460199  0.8335132709749828  0.6671052118274332
  0.8350970694672597  0.1650254990907527  0.9997468652938792
  0.8334872517640548  0.1665332527234895  0.3329319645041267
  0.8337548775001125  0.1661994789888368  0.6675777369196965
  0.8334319244803794  0.5000000000000000  0.9996700205579643
  0.8332223376942167  0.5000000000000000  0.3331251705565137
  0.8334323229159182  0.5000000000000000  0.6672263283758042
  0.8350970694672597  0.8349745009092473  0.9997468652938792
  0.8334872517640548  0.8334667472765105  0.3329319645041267
  0.8337548775001125  0.8338005210111632  0.6675777369196965
 
  0.00000000E+00  0.00000000E+00  0.00000000E+00
  0.00000000E+00  0.00000000E+00  0.00000000E+00
  0.00000000E+00  0.00000000E+00  0.00000000E+00
  0.00000000E+00  0.00000000E+00  0.00000000E+00
  0.00000000E+00  0.00000000E+00  0.00000000E+00
  0.00000000E+00  0.00000000E+00  0.00000000E+00
  0.00000000E+00  0.00000000E+00  0.00000000E+00
  0.00000000E+00  0.00000000E+00  0.00000000E+00
  0.00000000E+00  0.00000000E+00  0.00000000E+00
  0.00000000E+00  0.00000000E+00  0.00000000E+00
  0.00000000E+00  0.00000000E+00  0.00000000E+00
  0.00000000E+00  0.00000000E+00  0.00000000E+00
  0.00000000E+00  0.00000000E+00  0.00000000E+00
  0.00000000E+00  0.00000000E+00  0.00000000E+00
  0.00000000E+00  0.00000000E+00  0.00000000E+00
  0.00000000E+00  0.00000000E+00  0.00000000E+00
  0.00000000E+00  0.00000000E+00  0.00000000E+00
  0.00000000E+00  0.00000000E+00  0.00000000E+00
  0.00000000E+00  0.00000000E+00  0.00000000E+00
  0.00000000E+00  0.00000000E+00  0.00000000E+00
  0.00000000E+00  0.00000000E+00  0.00000000E+00
  0.00000000E+00  0.00000000E+00  0.00000000E+00
  0.00000000E+00  0.00000000E+00  0.00000000E+00
  0.00000000E+00  0.00000000E+00  0.00000000E+00
  0.00000000E+00  0.00000000E+00  0.00000000E+00
  0.00000000E+00  0.00000000E+00  0.00000000E+00
  0.00000000E+00  0.00000000E+00  0.00000000E+00
  0.00000000E+00  0.00000000E+00  0.00000000E+00
  0.00000000E+00  0.00000000E+00  0.00000000E+00
  0.00000000E+00  0.00000000E+00  0.00000000E+00
  0.00000000E+00  0.00000000E+00  0.00000000E+00
  0.00000000E+00  0.00000000E+00  0.00000000E+00
  0.00000000E+00  0.00000000E+00  0.00000000E+00
  0.00000000E+00  0.00000000E+00  0.00000000E+00
  0.00000000E+00  0.00000000E+00  0.00000000E+00
  0.00000000E+00  0.00000000E+00  0.00000000E+00
  0.00000000E+00  0.00000000E+00  0.00000000E+00
  0.00000000E+00  0.00000000E+00  0.00000000E+00
  0.00000000E+00  0.00000000E+00  0.00000000E+00
  0.00000000E+00  0.00000000E+00  0.00000000E+00
  0.00000000E+00  0.00000000E+00  0.00000000E+00
  0.00000000E+00  0.00000000E+00  0.00000000E+00
  0.00000000E+00  0.00000000E+00  0.00000000E+00
  0.00000000E+00  0.00000000E+00  0.00000000E+00
  0.00000000E+00  0.00000000E+00  0.00000000E+00
  0.00000000E+00  0.00000000E+00  0.00000000E+00
  0.00000000E+00  0.00000000E+00  0.00000000E+00
  0.00000000E+00  0.00000000E+00  0.00000000E+00
  0.00000000E+00  0.00000000E+00  0.00000000E+00
  0.00000000E+00  0.00000000E+00  0.00000000E+00
  0.00000000E+00  0.00000000E+00  0.00000000E+00
  0.00000000E+00  0.00000000E+00  0.00000000E+00
  0.00000000E+00  0.00000000E+00  0.00000000E+00
  0.00000000E+00  0.00000000E+00  0.00000000E+00
  0.00000000E+00  0.00000000E+00  0.00000000E+00
  0.00000000E+00  0.00000000E+00  0.00000000E+00
  0.00000000E+00  0.00000000E+00  0.00000000E+00
  0.00000000E+00  0.00000000E+00  0.00000000E+00
  0.00000000E+00  0.00000000E+00  0.00000000E+00
  0.00000000E+00  0.00000000E+00  0.00000000E+00
  0.00000000E+00  0.00000000E+00  0.00000000E+00
  0.00000000E+00  0.00000000E+00  0.00000000E+00
  0.00000000E+00  0.00000000E+00  0.00000000E+00
  0.00000000E+00  0.00000000E+00  0.00000000E+00
  0.00000000E+00  0.00000000E+00  0.00000000E+00
  0.00000000E+00  0.00000000E+00  0.00000000E+00
  0.00000000E+00  0.00000000E+00  0.00000000E+00
  0.00000000E+00  0.00000000E+00  0.00000000E+00
  0.00000000E+00  0.00000000E+00  0.00000000E+00
  0.00000000E+00  0.00000000E+00  0.00000000E+00
  0.00000000E+00  0.00000000E+00  0.00000000E+00
  0.00000000E+00  0.00000000E+00  0.00000000E+00
  0.00000000E+00  0.00000000E+00  0.00000000E+00
  0.00000000E+00  0.00000000E+00  0.00000000E+00
  0.00000000E+00  0.00000000E+00  0.00000000E+00
  0.00000000E+00  0.00000000E+00  0.00000000E+00
  0.00000000E+00  0.00000000E+00  0.00000000E+00
  0.00000000E+00  0.00000000E+00  0.00000000E+00
  0.00000000E+00  0.00000000E+00  0.00000000E+00
  0.00000000E+00  0.00000000E+00  0.00000000E+00
  0.00000000E+00  0.00000000E+00  0.00000000E+00
  0.00000000E+00  0.00000000E+00  0.00000000E+00
  0.00000000E+00  0.00000000E+00  0.00000000E+00
  0.00000000E+00  0.00000000E+00  0.00000000E+00
  0.00000000E+00  0.00000000E+00  0.00000000E+00
  0.00000000E+00  0.00000000E+00  0.00000000E+00
  0.00000000E+00  0.00000000E+00  0.00000000E+00
  0.00000000E+00  0.00000000E+00  0.00000000E+00
  0.00000000E+00  0.00000000E+00  0.00000000E+00
  0.00000000E+00  0.00000000E+00  0.00000000E+00
  0.00000000E+00  0.00000000E+00  0.00000000E+00
  0.00000000E+00  0.00000000E+00  0.00000000E+00
  0.00000000E+00  0.00000000E+00  0.00000000E+00
  0.00000000E+00  0.00000000E+00  0.00000000E+00
  0.00000000E+00  0.00000000E+00  0.00000000E+00
  0.00000000E+00  0.00000000E+00  0.00000000E+00
  0.00000000E+00  0.00000000E+00  0.00000000E+00
  0.00000000E+00  0.00000000E+00  0.00000000E+00
  0.00000000E+00  0.00000000E+00  0.00000000E+00
  0.00000000E+00  0.00000000E+00  0.00000000E+00
  0.00000000E+00  0.00000000E+00  0.00000000E+00
  0.00000000E+00  0.00000000E+00  0.00000000E+00
  0.00000000E+00  0.00000000E+00  0.00000000E+00
  0.00000000E+00  0.00000000E+00  0.00000000E+00
  0.00000000E+00  0.00000000E+00  0.00000000E+00
  0.00000000E+00  0.00000000E+00  0.00000000E+00
  0.00000000E+00  0.00000000E+00  0.00000000E+00
