Al29 Ag1 Pt1 Au1                        
   1.00000000000000     
     8.0870400000000000    0.0000000000000000    0.0000000000000000
     0.0000000000000000    8.0870400000000000    0.0000000000000000
     0.0000000000000000    0.0000000000000000    8.0870400000000000
   Al   Ag   Pt   Au
  29   1   1   1
Direct
 -0.0033377851441445  0.0078201715366058  0.0093190142644902
  0.2556998548837580 -0.0002798755125811  0.2527337216672481
  0.2596954911548343  0.2505225828971288 -0.0053708863025187
 -0.0075121160538717  0.2571489446297872  0.2573339763635695
  0.7528963062931834  0.0052830991286564  0.2588627086090075
  0.7544146845930805  0.2571914924331830  0.0042664011674390
  0.5050798249342631  0.2536704115794220  0.2541188664356929
 -0.0067161290722961  0.4924411432719107  0.0086721629547631
  0.2409536779538290  0.4913936630193475  0.2534426981544713
 -0.0086545720730015  0.7388079134768508  0.2566022412850313
  0.5087837211648958  0.4959516989114029  0.0067932035293376
  0.7555675156562340  0.4990284594898424  0.2479505973915976
  0.7503609438049432  0.7503243256774219 -0.0000935451896705
  0.5045331041455885  0.7504554585708259  0.2597997581368550
 -0.0084779031080953  0.0073795593925639  0.4937576070116452
  0.2436425016510394  0.2545546797619405  0.4903440397907664
 -0.0065821557435886  0.2558695129324224  0.7403081171185955
  0.5074554228646371  0.0050329923436525  0.4985584269959783
  0.7489391845028998  0.0013975184527858  0.7495782120217400
  0.7547280448037902  0.2436467507407792  0.4958040042903141
  0.5006727152545435  0.2545593491210291  0.7531228820720793
 -0.0054410119533868  0.4963223779710427  0.4924080576933187
  0.2459684100287162  0.4883585363457134  0.7458912840376795
  0.2487182882221871  0.7486679323611823  0.4890391224139563
 -0.0204654026182580  0.7404498552411451  0.7401837866290457
  0.5130774813225256  0.4964003309464334  0.4977855255974026
  0.7486772952866453  0.4927483593255803  0.7378261621332998
  0.7512054772673750  0.7397968521937580  0.4905854357558382
  0.5014738934929234  0.7520150336978332  0.7512356251354971
  0.2483900017929915  0.7451223093530709  0.0026871175925799
  0.5275762998202773  0.0204044269382467  0.0269594921251756
  0.2386769348714821  0.0075141337710161  0.7394941831177736
 
  0.00000000E+00  0.00000000E+00  0.00000000E+00
  0.00000000E+00  0.00000000E+00  0.00000000E+00
  0.00000000E+00  0.00000000E+00  0.00000000E+00
  0.00000000E+00  0.00000000E+00  0.00000000E+00
  0.00000000E+00  0.00000000E+00  0.00000000E+00
  0.00000000E+00  0.00000000E+00  0.00000000E+00
  0.00000000E+00  0.00000000E+00  0.00000000E+00
  0.00000000E+00  0.00000000E+00  0.00000000E+00
  0.00000000E+00  0.00000000E+00  0.00000000E+00
  0.00000000E+00  0.00000000E+00  0.00000000E+00
  0.00000000E+00  0.00000000E+00  0.00000000E+00
  0.00000000E+00  0.00000000E+00  0.00000000E+00
  0.00000000E+00  0.00000000E+00  0.00000000E+00
  0.00000000E+00  0.00000000E+00  0.00000000E+00
  0.00000000E+00  0.00000000E+00  0.00000000E+00
  0.00000000E+00  0.00000000E+00  0.00000000E+00
  0.00000000E+00  0.00000000E+00  0.00000000E+00
  0.00000000E+00  0.00000000E+00  0.00000000E+00
  0.00000000E+00  0.00000000E+00  0.00000000E+00
  0.00000000E+00  0.00000000E+00  0.00000000E+00
  0.00000000E+00  0.00000000E+00  0.00000000E+00
  0.00000000E+00  0.00000000E+00  0.00000000E+00
  0.00000000E+00  0.00000000E+00  0.00000000E+00
  0.00000000E+00  0.00000000E+00  0.00000000E+00
  0.00000000E+00  0.00000000E+00  0.00000000E+00
  0.00000000E+00  0.00000000E+00  0.00000000E+00
  0.00000000E+00  0.00000000E+00  0.00000000E+00
  0.00000000E+00  0.00000000E+00  0.00000000E+00
  0.00000000E+00  0.00000000E+00  0.00000000E+00
  0.00000000E+00  0.00000000E+00  0.00000000E+00
  0.00000000E+00  0.00000000E+00  0.00000000E+00
  0.00000000E+00  0.00000000E+00  0.00000000E+00
