Al29 Ag1 Pt1 Au1
1.0
8.087040 0.000000 0.000000
0.000000 8.087040 0.000000
0.000000 0.000000 8.087040
Al Ag Pt Au
29 1 1 1
direct
0.000000 0.000000 0.000000 Al
0.250000 0.000000 0.250000 Al
0.250000 0.250000 0.000000 Al
0.000000 0.250000 0.250000 Al
0.750000 0.000000 0.250000 Al
0.750000 0.250000 0.000000 Al
0.500000 0.250000 0.250000 Al
0.000000 0.500000 0.000000 Al
0.250000 0.500000 0.250000 Al
0.000000 0.750000 0.250000 Al
0.500000 0.500000 0.000000 Al
0.750000 0.500000 0.250000 Al
0.750000 0.750000 0.000000 Al
0.500000 0.750000 0.250000 Al
0.000000 0.000000 0.500000 Al
0.250000 0.250000 0.500000 Al
0.000000 0.250000 0.750000 Al
0.500000 0.000000 0.500000 Al
0.750000 0.000000 0.750000 Al
0.750000 0.250000 0.500000 Al
0.500000 0.250000 0.750000 Al
0.000000 0.500000 0.500000 Al
0.250000 0.500000 0.750000 Al
0.250000 0.750000 0.500000 Al
0.000000 0.750000 0.750000 Al
0.500000 0.500000 0.500000 Al
0.750000 0.500000 0.750000 Al
0.750000 0.750000 0.500000 Al
0.500000 0.750000 0.750000 Al
0.250000 0.750000 0.000000 Ag
0.500000 0.000000 0.000000 Pt
0.250000 0.000000 0.750000 Au

0.000000 0.000000 0.000000
0.000000 0.000000 0.000000
0.000000 0.000000 0.000000
0.000000 0.000000 0.000000
0.000000 0.000000 0.000000
0.000000 0.000000 0.000000
0.000000 0.000000 0.000000
0.000000 0.000000 0.000000
0.000000 0.000000 0.000000
0.000000 0.000000 0.000000
0.000000 0.000000 0.000000
0.000000 0.000000 0.000000
0.000000 0.000000 0.000000
0.000000 0.000000 0.000000
0.000000 0.000000 0.000000
0.000000 0.000000 0.000000
0.000000 0.000000 0.000000
0.000000 0.000000 0.000000
0.000000 0.000000 0.000000
0.000000 0.000000 0.000000
0.000000 0.000000 0.000000
0.000000 0.000000 0.000000
0.000000 0.000000 0.000000
0.000000 0.000000 0.000000
0.000000 0.000000 0.000000
0.000000 0.000000 0.000000
0.000000 0.000000 0.000000
0.000000 0.000000 0.000000
0.000000 0.000000 0.000000
0.000000 0.000000 0.000000
0.000000 0.000000 0.000000
0.000000 0.000000 0.000000
