Al31                                    
   1.00000000000000     
     8.0870540000000002    0.0000000000000000    0.0000000000000000
     0.0000000000000000    8.0870540000000002    0.0000000000000000
     0.0000000000000000    0.0000000000000000    8.0870540000000002
   Al
  31
Selective dynamics
Direct
  0.3749999999999999  0.4999999999999999  0.3731451836478401   T   T   T
  0.9997019999999992  0.0000000000000000  0.9997019999999992   F   F   F
  0.2484650000000030  0.0000000000000000  0.2484650000000030   F   F   F
  0.2481220000000022  0.2533549999999991  0.0023809999999997   F   F   F
  0.0023809999999997  0.2533549999999991  0.2481220000000022   F   F   F
  0.5005269999999982  0.0000000000000000  0.9930769999999995   F   F   F
  0.7569230000000005  0.0000000000000000  0.2494730000000018   F   F   F
  0.7513390000000015  0.2508100000000013  0.9986609999999985   F   F   F
  0.5065560000000033  0.2369709999999969  0.2434439999999967   F   F   F
  0.0009179999999986  0.5000000000000000  0.0009179999999986   F   F   F
  0.2481220000000022  0.7466450000000009  0.0023809999999997   F   F   F
  0.0023809999999997  0.7466450000000009  0.2481220000000022   F   F   F
  0.4948270000000008  0.5000000000000000  0.0054119999999998   F   F   F
  0.7445999999999984  0.5000000000000000  0.2551670000000001   F   F   F
  0.7513390000000015  0.7491899999999987  0.9986609999999985   F   F   F
  0.5065560000000033  0.7630290000000031  0.2434439999999967   F   F   F
  0.9930769999999995  0.0000000000000000  0.5005269999999982   F   F   F
  0.2494730000000018  0.0000000000000000  0.7569230000000005   F   F   F
  0.2434439999999967  0.2369709999999969  0.5065560000000033   F   F   F
  0.9986609999999985  0.2508100000000013  0.7513390000000015   F   F   F
  0.5015339999999995  0.0000000000000000  0.5015339999999995   F   F   F
  0.7503019999999978  0.0000000000000000  0.7503019999999978   F   F   F
  0.7476240000000018  0.2533540000000016  0.5018770000000004   F   F   F
  0.5018770000000004  0.2533540000000016  0.7476240000000018   F   F   F
  0.0054119999999998  0.5000000000000000  0.4948270000000008   F   F   F
  0.2551670000000001  0.5000000000000000  0.7445999999999984   F   F   F
  0.2434439999999967  0.7630290000000031  0.5065560000000033   F   F   F
  0.9986609999999985  0.7491899999999987  0.7513390000000015   F   F   F
  0.7490880000000004  0.5000000000000000  0.7490880000000004   F   F   F
  0.7476240000000018  0.7466459999999984  0.5018770000000004   F   F   F
  0.5018770000000004  0.7466459999999984  0.7476240000000018   F   F   F
 
  0.00000000E+00  0.00000000E+00  0.00000000E+00
  0.00000000E+00  0.00000000E+00  0.00000000E+00
  0.00000000E+00  0.00000000E+00  0.00000000E+00
  0.00000000E+00  0.00000000E+00  0.00000000E+00
  0.00000000E+00  0.00000000E+00  0.00000000E+00
  0.00000000E+00  0.00000000E+00  0.00000000E+00
  0.00000000E+00  0.00000000E+00  0.00000000E+00
  0.00000000E+00  0.00000000E+00  0.00000000E+00
  0.00000000E+00  0.00000000E+00  0.00000000E+00
  0.00000000E+00  0.00000000E+00  0.00000000E+00
  0.00000000E+00  0.00000000E+00  0.00000000E+00
  0.00000000E+00  0.00000000E+00  0.00000000E+00
  0.00000000E+00  0.00000000E+00  0.00000000E+00
  0.00000000E+00  0.00000000E+00  0.00000000E+00
  0.00000000E+00  0.00000000E+00  0.00000000E+00
  0.00000000E+00  0.00000000E+00  0.00000000E+00
  0.00000000E+00  0.00000000E+00  0.00000000E+00
  0.00000000E+00  0.00000000E+00  0.00000000E+00
  0.00000000E+00  0.00000000E+00  0.00000000E+00
  0.00000000E+00  0.00000000E+00  0.00000000E+00
  0.00000000E+00  0.00000000E+00  0.00000000E+00
  0.00000000E+00  0.00000000E+00  0.00000000E+00
  0.00000000E+00  0.00000000E+00  0.00000000E+00
  0.00000000E+00  0.00000000E+00  0.00000000E+00
  0.00000000E+00  0.00000000E+00  0.00000000E+00
  0.00000000E+00  0.00000000E+00  0.00000000E+00
  0.00000000E+00  0.00000000E+00  0.00000000E+00
  0.00000000E+00  0.00000000E+00  0.00000000E+00
  0.00000000E+00  0.00000000E+00  0.00000000E+00
  0.00000000E+00  0.00000000E+00  0.00000000E+00
  0.00000000E+00  0.00000000E+00  0.00000000E+00
