Al31
1.0
8.087054 0.000000 0.000000
0.000000 8.087054 0.000000
0.000000 0.000000 8.087054
Al
31
Selective dynamics
direct
0.375000 0.500000 0.375000 T T T Al
0.999702 0.000000 0.999702 F F F Al
0.248465 0.000000 0.248465 F F F Al
0.248122 0.253355 0.002381 F F F Al
0.002381 0.253355 0.248122 F F F Al
0.500527 0.000000 0.993077 F F F Al
0.756923 0.000000 0.249473 F F F Al
0.751339 0.250810 0.998661 F F F Al
0.506556 0.236971 0.243444 F F F Al
0.000918 0.500000 0.000918 F F F Al
0.248122 0.746645 0.002381 F F F Al
0.002381 0.746645 0.248122 F F F Al
0.494827 0.500000 0.005412 F F F Al
0.744600 0.500000 0.255167 F F F Al
0.751339 0.749190 0.998661 F F F Al
0.506556 0.763029 0.243444 F F F Al
0.993077 0.000000 0.500527 F F F Al
0.249473 0.000000 0.756923 F F F Al
0.243444 0.236971 0.506556 F F F Al
0.998661 0.250810 0.751339 F F F Al
0.501534 0.000000 0.501534 F F F Al
0.750302 0.000000 0.750302 F F F Al
0.747624 0.253354 0.501877 F F F Al
0.501877 0.253354 0.747624 F F F Al
0.005412 0.500000 0.494827 F F F Al
0.255167 0.500000 0.744600 F F F Al
0.243444 0.763029 0.506556 F F F Al
0.998661 0.749190 0.751339 F F F Al
0.749088 0.500000 0.749088 F F F Al
0.747624 0.746646 0.501877 F F F Al
0.501877 0.746646 0.747624 F F F Al

0.000000 0.000000 0.000000
0.000000 0.000000 0.000000
0.000000 0.000000 0.000000
0.000000 0.000000 0.000000
0.000000 0.000000 0.000000
0.000000 0.000000 0.000000
0.000000 0.000000 0.000000
0.000000 0.000000 0.000000
0.000000 0.000000 0.000000
0.000000 0.000000 0.000000
0.000000 0.000000 0.000000
0.000000 0.000000 0.000000
0.000000 0.000000 0.000000
0.000000 0.000000 0.000000
0.000000 0.000000 0.000000
0.000000 0.000000 0.000000
0.000000 0.000000 0.000000
0.000000 0.000000 0.000000
0.000000 0.000000 0.000000
0.000000 0.000000 0.000000
0.000000 0.000000 0.000000
0.000000 0.000000 0.000000
0.000000 0.000000 0.000000
0.000000 0.000000 0.000000
0.000000 0.000000 0.000000
0.000000 0.000000 0.000000
0.000000 0.000000 0.000000
0.000000 0.000000 0.000000
0.000000 0.000000 0.000000
0.000000 0.000000 0.000000
0.000000 0.000000 0.000000
