ENCUT = 313
IBRION = -1
ISPIN = 2
LCHARG = False
LWAVE = False
NSW = 0
