ENCUT = 334.88375
IBRION = 2
IMAGES = 1
ISIF = 2
ISMEAR = 1
LCHARG = False
LWAVE = False
NSW = 191
PREC = Accurate
SIGMA = 0.2
