Al3
1.0
3.500000 0.000000 0.000000
0.000000 3.500000 0.000000
0.000000 0.000000 3.500000
Al
3
Selective dynamics
direct
0.250000 0.250000 0.000000 T F F Al
0.968045 0.531955 0.500000 F F F Al
0.531955 0.968045 0.500000 F F F Al
