Al3
1.0
3.500000 0.000000 0.000000
0.000000 3.500000 0.000000
0.000000 0.000000 3.500000
3
direct
0.500000 0.500000 0.000000 Al
0.000000 0.500000 0.500000 Al
0.500000 0.000000 0.500000 Al
