Al29 Ag1 Pt1 Au1
1.0
8.087040 0.000000 0.000000
0.000000 8.087040 0.000000
0.000000 0.000000 8.087040
Al Au Pt Ag
29 1 1 1
direct
0.004840 -0.001861 0.999689 Al
0.257021 0.997192 0.243578 Al
0.257077 0.242900 0.997941 Al
0.999415 0.249227 0.249166 Al
0.751841 0.000806 0.253092 Al
0.751483 0.252059 -0.000073 Al
0.502804 0.251251 0.251246 Al
0.997874 0.498359 0.998894 Al
0.249313 0.497798 0.249726 Al
0.997860 0.747694 0.249532 Al
0.500121 0.502279 0.000873 Al
0.750092 0.499792 0.246973 Al
0.747143 0.753013 0.000424 Al
0.498414 0.753803 0.246291 Al
0.997692 0.999390 0.498165 Al
0.250057 0.250973 0.496741 Al
0.997383 0.250532 0.747580 Al
0.501451 0.001551 0.502276 Al
0.747826 0.000837 0.753516 Al
0.750205 0.247437 0.499100 Al
0.499337 0.246500 0.753979 Al
1.000101 0.498760 0.498048 Al
0.248611 0.499180 0.749145 Al
0.248598 0.747938 0.498533 Al
0.996919 0.748429 0.749999 Al
0.500424 0.498724 0.497950 Al
0.749268 0.497472 0.748352 Al
0.749421 0.749217 0.496856 Al
0.492288 0.759316 0.759374 Al
0.308008 0.006559 0.806624 Au
0.448220 -0.056755 0.018327 Pt
0.248890 0.809630 -0.061920 Ag

0.000000 0.000000 0.000000
0.000000 0.000000 0.000000
0.000000 0.000000 0.000000
0.000000 0.000000 0.000000
0.000000 0.000000 0.000000
0.000000 0.000000 0.000000
0.000000 0.000000 0.000000
0.000000 0.000000 0.000000
0.000000 0.000000 0.000000
0.000000 0.000000 0.000000
0.000000 0.000000 0.000000
0.000000 0.000000 0.000000
0.000000 0.000000 0.000000
0.000000 0.000000 0.000000
0.000000 0.000000 0.000000
0.000000 0.000000 0.000000
0.000000 0.000000 0.000000
0.000000 0.000000 0.000000
0.000000 0.000000 0.000000
0.000000 0.000000 0.000000
0.000000 0.000000 0.000000
0.000000 0.000000 0.000000
0.000000 0.000000 0.000000
0.000000 0.000000 0.000000
0.000000 0.000000 0.000000
0.000000 0.000000 0.000000
0.000000 0.000000 0.000000
0.000000 0.000000 0.000000
0.000000 0.000000 0.000000
0.000000 0.000000 0.000000
0.000000 0.000000 0.000000
0.000000 0.000000 0.000000
