Al29 Ag1 Pt1 Au1                        
   1.00000000000000     
     8.0870400000000000    0.0000000000000000    0.0000000000000000
     0.0000000000000000    8.0870400000000000    0.0000000000000000
     0.0000000000000000    0.0000000000000000    8.0870400000000000
   Al   Ag   Pt   Au
  29   1   1   1
Direct
  0.0044729999999973  0.0003099999999989  0.9997960000000035
  0.2584220000000030  0.9993550000000013  0.2441000000000031
  0.2593579999999989  0.2420389999999983  0.9971559999999968
  0.9989950000000007  0.2486460000000008  0.2493410000000011
  0.7512189999999990  0.0008920000000003  0.2538699999999992
  0.7514309999999966  0.2516180000000006  0.0002539999999982
  0.5028989999999993  0.2504369999999980  0.2516850000000019
  0.9984400000000022  0.4981999999999971  0.9982139999999973
  0.2491869999999992  0.4975230000000010  0.2491089999999971
  0.9976860000000016  0.7479020000000034  0.2492549999999980
  0.5019419999999997  0.5017810000000011  0.0009609999999967
  0.7499090000000024  0.4995460000000023  0.2471839999999972
  0.7474139999999991  0.7543840000000017  0.0000819999999990
  0.4998849999999990  0.7546120000000016  0.2471749999999986
  0.9966280000000012  0.9989050000000006  0.4983689999999967
  0.2494939999999986  0.2507730000000024  0.4962510000000009
  0.9962650000000011  0.2499460000000013  0.7474780000000010
  0.5010789999999972  0.0014680000000027  0.5036899999999989
  0.7462560000000025  0.0005960000000016  0.7553920000000005
  0.7494540000000001  0.2463219999999993  0.4993539999999967
  0.4986129999999989  0.2436750000000032  0.7560050000000018
  0.9992039999999989  0.4983239999999967  0.4975409999999982
  0.2481840000000020  0.4980350000000016  0.7474149999999966
  0.2484400000000022  0.7478979999999993  0.4974550000000022
  0.9949349999999981  0.7478750000000005  0.7484639999999985
  0.4999540000000025  0.4976020000000005  0.4985009999999974
  0.7479050000000029  0.4962090000000003  0.7481510000000000
  0.7487410000000025  0.7489509999999981  0.4965850000000032
  0.4927819999999983  0.7600150000000028  0.7591419999999971
  0.2492400000000004  0.7459089999999975  0.0021479999999983
  0.5207970000000017  0.0145759999999981  0.0195950000000025
  0.2407660000000007  0.0056739999999991  0.7402790000000010
 
  0.00000000E+00  0.00000000E+00  0.00000000E+00
  0.00000000E+00  0.00000000E+00  0.00000000E+00
  0.00000000E+00  0.00000000E+00  0.00000000E+00
  0.00000000E+00  0.00000000E+00  0.00000000E+00
  0.00000000E+00  0.00000000E+00  0.00000000E+00
  0.00000000E+00  0.00000000E+00  0.00000000E+00
  0.00000000E+00  0.00000000E+00  0.00000000E+00
  0.00000000E+00  0.00000000E+00  0.00000000E+00
  0.00000000E+00  0.00000000E+00  0.00000000E+00
  0.00000000E+00  0.00000000E+00  0.00000000E+00
  0.00000000E+00  0.00000000E+00  0.00000000E+00
  0.00000000E+00  0.00000000E+00  0.00000000E+00
  0.00000000E+00  0.00000000E+00  0.00000000E+00
  0.00000000E+00  0.00000000E+00  0.00000000E+00
  0.00000000E+00  0.00000000E+00  0.00000000E+00
  0.00000000E+00  0.00000000E+00  0.00000000E+00
  0.00000000E+00  0.00000000E+00  0.00000000E+00
  0.00000000E+00  0.00000000E+00  0.00000000E+00
  0.00000000E+00  0.00000000E+00  0.00000000E+00
  0.00000000E+00  0.00000000E+00  0.00000000E+00
  0.00000000E+00  0.00000000E+00  0.00000000E+00
  0.00000000E+00  0.00000000E+00  0.00000000E+00
  0.00000000E+00  0.00000000E+00  0.00000000E+00
  0.00000000E+00  0.00000000E+00  0.00000000E+00
  0.00000000E+00  0.00000000E+00  0.00000000E+00
  0.00000000E+00  0.00000000E+00  0.00000000E+00
  0.00000000E+00  0.00000000E+00  0.00000000E+00
  0.00000000E+00  0.00000000E+00  0.00000000E+00
  0.00000000E+00  0.00000000E+00  0.00000000E+00
  0.00000000E+00  0.00000000E+00  0.00000000E+00
  0.00000000E+00  0.00000000E+00  0.00000000E+00
  0.00000000E+00  0.00000000E+00  0.00000000E+00
