Mg1 Al30                                
   1.00000000000000     
     8.0870519999999999    0.0000000000000000    0.0000000000000000
     0.0000000000000000    8.0870519999999999    0.0000000000000000
     0.0000000000000000    0.0000000000000000    8.0870519999999999
   Al   Mg
  30   1
Direct
  0.9912167791989841  0.0000000000000000  0.9912167791989841
  0.2527862521742794  0.0000000000000000  0.2527862521742794
  0.2484776096758873  0.2482047602201030 -0.0014909591364508
 -0.0014909591364508  0.2482047602201030  0.2484776096758873
  0.5036674468727249  0.0000000000000000  0.9887034841596324
  0.7612965340388375  0.0000000000000000  0.2463335714408019
  0.7532406901100190  0.2390324104084755  0.9967592680085705
  0.5162237135535789  0.2190892929951453  0.2337761199946618
 -0.0064992996187695  0.5000000000000000 -0.0064992996187695
  0.2484776096758873  0.7517952397798969 -0.0014909591364508
 -0.0014909591364508  0.7517952397798969  0.2484776096758873
  0.5080034144216846  0.5000000000000000  0.0057099646270759
  0.7442892543873904  0.5000000000000000  0.2419944424643249
  0.7532406901100190  0.7609685895915219  0.9967592680085705
  0.5162237135535789  0.7809107070048548  0.2337761199946618
  0.9887034841596324  0.0000000000000000  0.5036674468727249
  0.2463335714408019  0.0000000000000000  0.7612965340388375
  0.2337761199946618  0.2190892929951453  0.5162237135535789
  0.9967592680085705  0.2390324104084755  0.7532406901100190
  0.4972137848171314  0.0000000000000000  0.4972137848171314
  0.7587831974440760  0.0000000000000000  0.7587831974440760
  0.7514911538159745  0.2482045764519911  0.5015244470864588
  0.5015244470864588  0.2482045764519911  0.7514911538159745
  0.0057099646270759  0.5000000000000000  0.5080034144216846
  0.2419944424643249  0.5000000000000000  0.7442892543873904
  0.2337761199946618  0.7809107070048549  0.5162237135535789
  0.9967592680085705  0.7609685895915219  0.7532406901100190
  0.7564995012785283  0.5000000000000000  0.7564995012785283
  0.7514911538159745  0.7517954235480089  0.5015244470864588
  0.5015244470864588  0.7517954235480089  0.7514911538159745
  0.3750043803468073  0.5000000000000000  0.3750043803468073
 
  0.00000000E+00  0.00000000E+00  0.00000000E+00
  0.00000000E+00  0.00000000E+00  0.00000000E+00
  0.00000000E+00  0.00000000E+00  0.00000000E+00
  0.00000000E+00  0.00000000E+00  0.00000000E+00
  0.00000000E+00  0.00000000E+00  0.00000000E+00
  0.00000000E+00  0.00000000E+00  0.00000000E+00
  0.00000000E+00  0.00000000E+00  0.00000000E+00
  0.00000000E+00  0.00000000E+00  0.00000000E+00
  0.00000000E+00  0.00000000E+00  0.00000000E+00
  0.00000000E+00  0.00000000E+00  0.00000000E+00
  0.00000000E+00  0.00000000E+00  0.00000000E+00
  0.00000000E+00  0.00000000E+00  0.00000000E+00
  0.00000000E+00  0.00000000E+00  0.00000000E+00
  0.00000000E+00  0.00000000E+00  0.00000000E+00
  0.00000000E+00  0.00000000E+00  0.00000000E+00
  0.00000000E+00  0.00000000E+00  0.00000000E+00
  0.00000000E+00  0.00000000E+00  0.00000000E+00
  0.00000000E+00  0.00000000E+00  0.00000000E+00
  0.00000000E+00  0.00000000E+00  0.00000000E+00
  0.00000000E+00  0.00000000E+00  0.00000000E+00
  0.00000000E+00  0.00000000E+00  0.00000000E+00
  0.00000000E+00  0.00000000E+00  0.00000000E+00
  0.00000000E+00  0.00000000E+00  0.00000000E+00
  0.00000000E+00  0.00000000E+00  0.00000000E+00
  0.00000000E+00  0.00000000E+00  0.00000000E+00
  0.00000000E+00  0.00000000E+00  0.00000000E+00
  0.00000000E+00  0.00000000E+00  0.00000000E+00
  0.00000000E+00  0.00000000E+00  0.00000000E+00
  0.00000000E+00  0.00000000E+00  0.00000000E+00
  0.00000000E+00  0.00000000E+00  0.00000000E+00
  0.00000000E+00  0.00000000E+00  0.00000000E+00
