Mg1 Al30
1.0
8.087052 0.000000 0.000000
0.000000 8.087052 0.000000
0.000000 0.000000 8.087052
Al Mg
30 1
direct
0.999258 0.000000 0.999258 Al
0.248731 0.000000 0.248731 Al
0.250764 0.252005 0.002870 Al
0.002870 0.252005 0.250764 Al
0.499879 0.000000 0.996399 Al
0.753601 0.000000 0.250122 Al
0.751519 0.249055 0.998481 Al
0.502390 0.247484 0.247610 Al
1.001696 0.500000 1.001696 Al
0.250764 0.747995 0.002870 Al
0.002870 0.747995 0.250764 Al
0.500624 0.500000 1.000270 Al
0.749729 0.500000 0.249374 Al
0.751519 0.750946 0.998481 Al
0.502390 0.752516 0.247610 Al
0.996399 0.000000 0.499879 Al
0.250122 0.000000 0.753601 Al
0.247610 0.247484 0.502390 Al
0.998481 0.249055 0.751519 Al
0.501269 0.000000 0.501269 Al
0.750742 0.000000 0.750742 Al
0.747130 0.252005 0.499238 Al
0.499238 0.252005 0.747130 Al
1.000270 0.500000 0.500624 Al
0.249374 0.500000 0.749729 Al
0.247610 0.752516 0.502390 Al
0.998481 0.750946 0.751519 Al
0.748304 0.500000 0.748304 Al
0.747130 0.747995 0.499238 Al
0.499238 0.747995 0.747130 Al
0.375000 0.500000 0.375000 Mg

0.000000 0.000000 0.000000
0.000000 0.000000 0.000000
0.000000 0.000000 0.000000
0.000000 0.000000 0.000000
0.000000 0.000000 0.000000
0.000000 0.000000 0.000000
0.000000 0.000000 0.000000
0.000000 0.000000 0.000000
0.000000 0.000000 0.000000
0.000000 0.000000 0.000000
0.000000 0.000000 0.000000
0.000000 0.000000 0.000000
0.000000 0.000000 0.000000
0.000000 0.000000 0.000000
0.000000 0.000000 0.000000
0.000000 0.000000 0.000000
0.000000 0.000000 0.000000
0.000000 0.000000 0.000000
0.000000 0.000000 0.000000
0.000000 0.000000 0.000000
0.000000 0.000000 0.000000
0.000000 0.000000 0.000000
0.000000 0.000000 0.000000
0.000000 0.000000 0.000000
0.000000 0.000000 0.000000
0.000000 0.000000 0.000000
0.000000 0.000000 0.000000
0.000000 0.000000 0.000000
0.000000 0.000000 0.000000
0.000000 0.000000 0.000000
0.000000 0.000000 0.000000
