POSCAR_02:FCC Al endpoint 1             
   1.00000000000000     
     7.9894616391000000    0.0000000000000000    0.0000000000000000
     0.0000000000000000    7.9894616391000000    0.0000000000000000
     0.0000000000000000    0.0000000000000000    7.9894616391000000
   Al
  31
Direct
  0.0031544499066669  0.0031544499066670  0.5000000000000000
  0.0091690989717435  0.4875248413563188  0.0000000000000000
 -0.0006539116116645  0.5097250382955874  0.5000000000000000
  0.4875248413563188  0.0091690989717435  0.0000000000000000
  0.5097250382955874 -0.0006539116116645  0.5000000000000000
  0.5038960212252808  0.5038960212252808  0.0000000000000000
  0.5130621868310336  0.5130621868310336  0.5000000000000000
  0.1290319714184478  0.1290319714184478  0.0000000000000000
  0.2549101581461571  0.2549101581461571  0.5000000000000000
  0.2488954690029103  0.7705396788003761  0.0000000000000000
  0.2587185195988865  0.7483394253391976  0.5000000000000000
  0.7705396788003761  0.2488954690029103  0.0000000000000000
  0.7483394253391976  0.2587185195988865  0.5000000000000000
  0.7541684980930263  0.7541684980930263  0.0000000000000000
  0.7450022670747670  0.7450022670747670  0.5000000000000000
  0.2611559034429504 -0.0030913487915431  0.2676959384258201
  0.2611559034429504 -0.0030913487915431  0.7323040615741818
  0.2567454340291827  0.5023699857909492  0.2510696335185708
  0.2567454340291827  0.5023699857909492  0.7489303664814291
  0.7556945370983240  0.0013191852301434  0.2510695733526291
  0.7556945370983240  0.0013191852301434  0.7489304266473701
  0.7535066398008038  0.5045578071248352  0.2610281752908468
  0.7535066398008038  0.5045578071248352  0.7389718247091530
 -0.0030913487915431  0.2611559034429504  0.2676959384258201
 -0.0030913487915431  0.2611559034429504  0.7323040615741818
  0.0013191852301434  0.7556945370983240  0.2510695733526291
  0.0013191852301434  0.7556945370983240  0.7489304266473701
  0.5023699857909492  0.2567454340291827  0.2510696335185708
  0.5023699857909492  0.2567454340291827  0.7489303664814291
  0.5045578071248354  0.7535066398008038  0.2610281752908468
  0.5045578071248354  0.7535066398008038  0.7389718247091530
 
  0.00000000E+00  0.00000000E+00  0.00000000E+00
  0.00000000E+00  0.00000000E+00  0.00000000E+00
  0.00000000E+00  0.00000000E+00  0.00000000E+00
  0.00000000E+00  0.00000000E+00  0.00000000E+00
  0.00000000E+00  0.00000000E+00  0.00000000E+00
  0.00000000E+00  0.00000000E+00  0.00000000E+00
  0.00000000E+00  0.00000000E+00  0.00000000E+00
  0.00000000E+00  0.00000000E+00  0.00000000E+00
  0.00000000E+00  0.00000000E+00  0.00000000E+00
  0.00000000E+00  0.00000000E+00  0.00000000E+00
  0.00000000E+00  0.00000000E+00  0.00000000E+00
  0.00000000E+00  0.00000000E+00  0.00000000E+00
  0.00000000E+00  0.00000000E+00  0.00000000E+00
  0.00000000E+00  0.00000000E+00  0.00000000E+00
  0.00000000E+00  0.00000000E+00  0.00000000E+00
  0.00000000E+00  0.00000000E+00  0.00000000E+00
  0.00000000E+00  0.00000000E+00  0.00000000E+00
  0.00000000E+00  0.00000000E+00  0.00000000E+00
  0.00000000E+00  0.00000000E+00  0.00000000E+00
  0.00000000E+00  0.00000000E+00  0.00000000E+00
  0.00000000E+00  0.00000000E+00  0.00000000E+00
  0.00000000E+00  0.00000000E+00  0.00000000E+00
  0.00000000E+00  0.00000000E+00  0.00000000E+00
  0.00000000E+00  0.00000000E+00  0.00000000E+00
  0.00000000E+00  0.00000000E+00  0.00000000E+00
  0.00000000E+00  0.00000000E+00  0.00000000E+00
  0.00000000E+00  0.00000000E+00  0.00000000E+00
  0.00000000E+00  0.00000000E+00  0.00000000E+00
  0.00000000E+00  0.00000000E+00  0.00000000E+00
  0.00000000E+00  0.00000000E+00  0.00000000E+00
  0.00000000E+00  0.00000000E+00  0.00000000E+00
