Al 32 atom test
#
PREC = Accurate
ENCUT = 360 #enmax is 240
NPAR = 1
#VOSKOWN = 1
#ISPIN = 2
#
ISMEAR = 1 #metal
SIGMA = 0.2
#
IBRION = 1
POTIM = 0.5
IMAGES = 3
SPRING = -5
LCLIMB = True
ISIF = 2
NSW = 191
#
LWAVE = False
LCHARG = False

