Sr1 Al142 Cr1
1.0
12.000000 0.000000 0.000000
0.000000 16.000000 0.000000
0.000000 0.000000 12.000000
Sr Al Cr
1 142 1
direct
0.166667 0.125000 0.000000 Sr
0.000000 0.000000 0.000000 Al
0.000000 0.000000 0.333333 Al
0.000000 0.000000 0.666667 Al
0.000000 0.250000 0.000000 Al
0.000000 0.250000 0.333333 Al
0.000000 0.250000 0.666667 Al
0.000000 0.500000 0.000000 Al
0.000000 0.500000 0.333333 Al
0.000000 0.500000 0.666667 Al
0.000000 0.750000 0.000000 Al
0.000000 0.750000 0.333333 Al
0.000000 0.750000 0.666667 Al
0.333333 0.000000 0.000000 Al
0.333333 0.000000 0.333333 Al
0.333333 0.000000 0.666667 Al
0.333333 0.250000 0.000000 Al
0.333333 0.250000 0.333333 Al
0.333333 0.250000 0.666667 Al
0.333333 0.500000 0.000000 Al
0.333333 0.500000 0.333333 Al
0.333333 0.500000 0.666667 Al
0.333333 0.750000 0.000000 Al
0.333333 0.750000 0.333333 Al
0.333333 0.750000 0.666667 Al
0.666667 0.000000 0.000000 Al
0.666667 0.000000 0.333333 Al
0.666667 0.000000 0.666667 Al
0.666667 0.250000 0.000000 Al
0.666667 0.250000 0.333333 Al
0.666667 0.250000 0.666667 Al
0.666667 0.500000 0.000000 Al
0.666667 0.500000 0.333333 Al
0.666667 0.500000 0.666667 Al
0.666667 0.750000 0.000000 Al
0.666667 0.750000 0.333333 Al
0.666667 0.750000 0.666667 Al
0.166667 0.125000 0.333333 Al
0.166667 0.125000 0.666667 Al
0.166667 0.375000 0.000000 Al
0.166667 0.375000 0.333333 Al
0.166667 0.375000 0.666667 Al
0.166667 0.625000 0.000000 Al
0.166667 0.625000 0.333333 Al
0.166667 0.625000 0.666667 Al
0.166667 0.875000 0.000000 Al
0.166667 0.875000 0.333333 Al
0.166667 0.875000 0.666667 Al
0.500000 0.125000 0.000000 Al
0.500000 0.125000 0.333333 Al
0.500000 0.125000 0.666667 Al
0.500000 0.375000 0.000000 Al
0.500000 0.375000 0.333333 Al
0.500000 0.375000 0.666667 Al
0.500000 0.625000 0.000000 Al
0.500000 0.625000 0.333333 Al
0.500000 0.625000 0.666667 Al
0.500000 0.875000 0.000000 Al
0.500000 0.875000 0.333333 Al
0.500000 0.875000 0.666667 Al
0.833333 0.125000 0.000000 Al
0.833333 0.125000 0.333333 Al
0.833333 0.125000 0.666667 Al
0.833333 0.375000 0.000000 Al
0.833333 0.375000 0.333333 Al
0.833333 0.375000 0.666667 Al
0.833333 0.625000 0.000000 Al
0.833333 0.625000 0.333333 Al
0.833333 0.625000 0.666667 Al
0.833333 0.875000 0.000000 Al
0.833333 0.875000 0.333333 Al
0.833333 0.875000 0.666667 Al
0.166667 0.000000 0.166667 Al
0.166667 0.000000 0.500000 Al
0.166667 0.000000 0.833333 Al
0.166667 0.250000 0.166667 Al
0.166667 0.250000 0.500000 Al
0.166667 0.250000 0.833333 Al
0.166667 0.500000 0.166667 Al
0.166667 0.500000 0.500000 Al
0.166667 0.500000 0.833333 Al
0.166667 0.750000 0.166667 Al
0.166667 0.750000 0.500000 Al
0.166667 0.750000 0.833333 Al
0.500000 0.000000 0.166667 Al
0.500000 0.000000 0.500000 Al
0.500000 0.000000 0.833333 Al
0.500000 0.250000 0.166667 Al
0.500000 0.250000 0.500000 Al
0.500000 0.250000 0.833333 Al
0.500000 0.500000 0.166667 Al
0.500000 0.500000 0.500000 Al
0.500000 0.500000 0.833333 Al
0.500000 0.750000 0.166667 Al
0.500000 0.750000 0.500000 Al
0.500000 0.750000 0.833333 Al
0.833333 0.000000 0.166667 Al
0.833333 0.000000 0.500000 Al
0.833333 0.000000 0.833333 Al
0.833333 0.250000 0.166667 Al
0.833333 0.250000 0.500000 Al
0.833333 0.250000 0.833333 Al
0.833333 0.500000 0.166667 Al
0.833333 0.500000 0.500000 Al
0.833333 0.500000 0.833333 Al
0.833333 0.750000 0.166667 Al
0.833333 0.750000 0.500000 Al
0.833333 0.750000 0.833333 Al
0.000000 0.125000 0.500000 Al
0.000000 0.125000 0.833333 Al
0.000000 0.375000 0.166667 Al
0.000000 0.375000 0.500000 Al
0.000000 0.375000 0.833333 Al
0.000000 0.625000 0.166667 Al
0.000000 0.625000 0.500000 Al
0.000000 0.625000 0.833333 Al
0.000000 0.875000 0.166667 Al
0.000000 0.875000 0.500000 Al
0.000000 0.875000 0.833333 Al
0.333333 0.125000 0.166667 Al
0.333333 0.125000 0.500000 Al
0.333333 0.125000 0.833333 Al
0.333333 0.375000 0.166667 Al
0.333333 0.375000 0.500000 Al
0.333333 0.375000 0.833333 Al
0.333333 0.625000 0.166667 Al
0.333333 0.625000 0.500000 Al
0.333333 0.625000 0.833333 Al
0.333333 0.875000 0.166667 Al
0.333333 0.875000 0.500000 Al
0.333333 0.875000 0.833333 Al
0.666667 0.125000 0.166667 Al
0.666667 0.125000 0.500000 Al
0.666667 0.125000 0.833333 Al
0.666667 0.375000 0.166667 Al
0.666667 0.375000 0.500000 Al
0.666667 0.375000 0.833333 Al
0.666667 0.625000 0.166667 Al
0.666667 0.625000 0.500000 Al
0.666667 0.625000 0.833333 Al
0.666667 0.875000 0.166667 Al
0.666667 0.875000 0.500000 Al
0.666667 0.875000 0.833333 Al
0.266667 0.175000 0.200000 Cr
