POSCAR_00:Al                                      
1.0000000000
10.9063935957 0.0000000000 0.0000000000
0.0000000000 10.9063935957 0.0000000000
0.0000000000 0.0000000000 10.9063935957
   Al   Mg
1 106 
D
0.0039959426 0.0000000000 0.0039959426
0.0021688968 0.0000000000 0.3313745088
0.0005249795 0.0000000000 0.6662917493
0.0004825382 0.3334392277 0.0004825382
0.0005434782 0.3330680363 0.3333111630
0.0003035026 0.3333902024 0.6661275036
0.0004825382 0.6665607723 0.0004825382
0.0005434782 0.6669319637 0.3333111630
0.0003035026 0.6666097976 0.6661275036
0.3313745088 0.0000000000 0.0021688968
0.3313083436 0.0000000000 0.3313083436
0.3332152534 0.0000000000 0.6663660136
0.3333111630 0.3330680363 0.0005434782
0.3329986254 0.3326590950 0.3329986254
0.3334387795 0.3331885330 0.6662946987
0.3333111630 0.6669319637 0.0005434782
0.3329986254 0.6673409050 0.3329986254
0.3334387795 0.6668114670 0.6662946987
0.6662917493 0.0000000000 0.0005249795
0.6663660136 0.0000000000 0.3332152534
0.6662390923 0.0000000000 0.6662390923
0.6661275036 0.3333902024 0.0003035026
0.6662946987 0.3331885330 0.3334387795
0.6663518846 0.3333046074 0.6663518846
0.6661275036 0.6666097976 0.0003035026
0.6662946987 0.6668114670 0.3334387795
0.6663518846 0.6666953926 0.6663518846
0.0016728235 0.1664843105 0.1675598130
0.0005706606 0.1662626226 0.4991101490
0.0004627157 0.1671163583 0.8331870951
0.0004563779 0.5000000000 0.1670559478
0.0003574843 0.5000000000 0.4996243079
0.0002801497 0.5000000000 0.8333184332
0.0016728235 0.8335156895 0.1675598130
0.0005706606 0.8337373774 0.4991101490
0.0004627157 0.8328836417 0.8331870951
0.3315754732 0.1650478754 0.1668904034
0.3329287461 0.1661998745 0.4990949539
0.3331979429 0.1665486454 0.8337317456
0.3332308926 0.5000000000 0.1669640042
0.3332744921 0.5000000000 0.4994975824
0.3334907848 0.5000000000 0.8335037999
0.3315754732 0.8349521246 0.1668904034
0.3329287461 0.8338001255 0.4990949539
0.3331979429 0.8334513546 0.8337317456
0.6664322562 0.1664476489 0.1670537078
0.6663597151 0.1665199370 0.4995856307
0.6663022776 0.1667239327 0.8333426317
0.6661467653 0.5000000000 0.1669760003
0.6664362705 0.5000000000 0.4997629563
0.6663498147 0.5000000000 0.8333584683
0.6664322562 0.8335523511 0.1670537078
0.6663597151 0.8334800630 0.4995856307
0.6663022776 0.8332760673 0.8333426317
0.1668703927 0.0000000000 0.4988040934
0.1674031478 0.0000000000 0.8342680507
0.1670890906 0.3327237414 0.1670890906
0.1669362707 0.3331472854 0.4996998652
0.1671255001 0.3336704830 0.8329639937
0.1670890906 0.6672762586 0.1670890906
0.1669362707 0.6668527146 0.4996998652
0.1671255001 0.6663295170 0.8329639937
0.4988040934 0.0000000000 0.1668703927
0.4994880606 0.0000000000 0.4994880606
0.4996770187 0.0000000000 0.8334778830
0.4996998652 0.3331472854 0.1669362707
0.4996140199 0.3331071905 0.4996140199
0.4997139786 0.3332489204 0.8334549575
0.4996998652 0.6668527146 0.1669362707
0.4996140199 0.6668928095 0.4996140199
0.4997139786 0.6667510796 0.8334549575
0.8342680507 0.0000000000 0.1674031478
0.8334778830 0.0000000000 0.4996770187
0.8334105105 0.0000000000 0.8334105105
0.8329639937 0.3336704830 0.1671255001
0.8334549575 0.3332489204 0.4997139786
0.8332507044 0.3334368034 0.8332507044
0.8329639937 0.6663295170 0.1671255001
0.8334549575 0.6667510796 0.4997139786
0.8332507044 0.6665631966 0.8332507044
0.1675598130 0.1664843105 0.0016728235
0.1668904034 0.1650478754 0.3315754732
0.1670537078 0.1664476489 0.6664322562
0.1670559478 0.5000000000 0.0004563779
0.1669640042 0.5000000000 0.3332308926
0.1669760003 0.5000000000 0.6661467653
0.1675598130 0.8335156895 0.0016728235
0.1668904034 0.8349521246 0.3315754732
0.1670537078 0.8335523511 0.6664322562
0.4991101490 0.1662626226 0.0005706606
0.4990949539 0.1661998745 0.3329287461
0.4995856307 0.1665199370 0.6663597151
0.4996243079 0.5000000000 0.0003574843
0.4994975824 0.5000000000 0.3332744921
0.4997629563 0.5000000000 0.6664362705
0.4991101490 0.8337373774 0.0005706606
0.4990949539 0.8338001255 0.3329287461
0.4995856307 0.8334800630 0.6663597151
0.8331870951 0.1671163583 0.0004627157
0.8337317456 0.1665486454 0.3331979429
0.8333426317 0.1667239327 0.6663022776
0.8333184332 0.5000000000 0.0002801497
0.8335037999 0.5000000000 0.3334907848
0.8333584683 0.5000000000 0.6663498147
0.8331870951 0.8328836417 0.0004627157
0.8337317456 0.8334513546 0.3331979429
0.8333426317 0.8332760673 0.6663022776
