Mg1 Al30                                
   1.00000000000000     
     8.0870540000000002    0.0000000000000000    0.0000000000000000
     0.0000000000000000    8.0870540000000002    0.0000000000000000
     0.0000000000000000    0.0000000000000000    8.0870540000000002
   Mg   Al
   1  30
Selective dynamics
Direct
  0.2607959999999991  0.4999999999999999  0.2589411836478392   T   T   T
  0.9995839999999987  0.0000000000000000  0.9995839999999987   F   F   F
  0.2482460000000017  0.0000000000000000  0.2482460000000017   F   F   F
  0.2500369999999990  0.2496549999999971  0.0003779999999978   F   F   F
  0.0003779999999978  0.2496549999999971  0.2500369999999990   F   F   F
  0.4996330000000029  0.0000000000000000  0.9961660000000023   F   F   F
  0.7533650000000023  0.0000000000000000  0.2498930000000001   F   F   F
  0.7520639999999972  0.2490829999999988  0.9990489999999994   F   F   F
  0.5045289999999980  0.2475510000000014  0.2498080000000016   F   F   F
  0.9991029999999981  0.5000000000000000  0.9991029999999981   F   F   F
  0.2500369999999990  0.7503450000000029  0.0003779999999978   F   F   F
  0.0003779999999978  0.7503450000000029  0.2500369999999990   F   F   F
  0.5024409999999975  0.5000000000000000  0.9974360000000004   F   F   F
  0.7468519999999970  0.5000000000000000  0.2512749999999997   F   F   F
  0.7520639999999972  0.7509170000000012  0.9990489999999994   F   F   F
  0.5045289999999980  0.7524489999999986  0.2498080000000016   F   F   F
  0.9961660000000023  0.0000000000000000  0.4996330000000029   F   F   F
  0.2498930000000001  0.0000000000000000  0.7533650000000023   F   F   F
  0.2498080000000016  0.2475510000000014  0.5045289999999980   F   F   F
  0.9990489999999994  0.2490829999999988  0.7520639999999972   F   F   F
  0.5007840000000030  0.0000000000000000  0.5007840000000030   F   F   F
  0.7510479999999973  0.0000000000000000  0.7510479999999973   F   F   F
  0.7445499999999967  0.2544479999999965  0.4984660000000005   F   F   F
  0.4984660000000005  0.2544479999999965  0.7445499999999967   F   F   F
  0.9974360000000004  0.5000000000000000  0.5024409999999975   F   F   F
  0.2512749999999997  0.5000000000000000  0.7468519999999970   F   F   F
  0.2498080000000016  0.7524489999999986  0.5045289999999980   F   F   F
  0.9990489999999994  0.7509170000000012  0.7520639999999972   F   F   F
  0.7456180000000003  0.5000000000000000  0.7456180000000003   F   F   F
  0.7445499999999967  0.7455520000000035  0.4984660000000005   F   F   F
  0.4984660000000005  0.7455520000000035  0.7445499999999967   F   F   F
 
  0.00000000E+00  0.00000000E+00  0.00000000E+00
  0.00000000E+00  0.00000000E+00  0.00000000E+00
  0.00000000E+00  0.00000000E+00  0.00000000E+00
  0.00000000E+00  0.00000000E+00  0.00000000E+00
  0.00000000E+00  0.00000000E+00  0.00000000E+00
  0.00000000E+00  0.00000000E+00  0.00000000E+00
  0.00000000E+00  0.00000000E+00  0.00000000E+00
  0.00000000E+00  0.00000000E+00  0.00000000E+00
  0.00000000E+00  0.00000000E+00  0.00000000E+00
  0.00000000E+00  0.00000000E+00  0.00000000E+00
  0.00000000E+00  0.00000000E+00  0.00000000E+00
  0.00000000E+00  0.00000000E+00  0.00000000E+00
  0.00000000E+00  0.00000000E+00  0.00000000E+00
  0.00000000E+00  0.00000000E+00  0.00000000E+00
  0.00000000E+00  0.00000000E+00  0.00000000E+00
  0.00000000E+00  0.00000000E+00  0.00000000E+00
  0.00000000E+00  0.00000000E+00  0.00000000E+00
  0.00000000E+00  0.00000000E+00  0.00000000E+00
  0.00000000E+00  0.00000000E+00  0.00000000E+00
  0.00000000E+00  0.00000000E+00  0.00000000E+00
  0.00000000E+00  0.00000000E+00  0.00000000E+00
  0.00000000E+00  0.00000000E+00  0.00000000E+00
  0.00000000E+00  0.00000000E+00  0.00000000E+00
  0.00000000E+00  0.00000000E+00  0.00000000E+00
  0.00000000E+00  0.00000000E+00  0.00000000E+00
  0.00000000E+00  0.00000000E+00  0.00000000E+00
  0.00000000E+00  0.00000000E+00  0.00000000E+00
  0.00000000E+00  0.00000000E+00  0.00000000E+00
  0.00000000E+00  0.00000000E+00  0.00000000E+00
  0.00000000E+00  0.00000000E+00  0.00000000E+00
  0.00000000E+00  0.00000000E+00  0.00000000E+00
