Mg1 Al30
1.0
8.087054 0.000000 0.000000
0.000000 8.087054 0.000000
0.000000 0.000000 8.087054
Mg Al
1 30
Selective dynamics
direct
0.260796 0.500000 0.260796 T T T Mg
0.999584 0.000000 0.999584 F F F Al
0.248246 0.000000 0.248246 F F F Al
0.250037 0.249655 0.000378 F F F Al
0.000378 0.249655 0.250037 F F F Al
0.499633 0.000000 0.996166 F F F Al
0.753365 0.000000 0.249893 F F F Al
0.752064 0.249083 0.999049 F F F Al
0.504529 0.247551 0.249808 F F F Al
0.999103 0.500000 0.999103 F F F Al
0.250037 0.750345 0.000378 F F F Al
0.000378 0.750345 0.250037 F F F Al
0.502441 0.500000 0.997436 F F F Al
0.746852 0.500000 0.251275 F F F Al
0.752064 0.750917 0.999049 F F F Al
0.504529 0.752449 0.249808 F F F Al
0.996166 0.000000 0.499633 F F F Al
0.249893 0.000000 0.753365 F F F Al
0.249808 0.247551 0.504529 F F F Al
0.999049 0.249083 0.752064 F F F Al
0.500784 0.000000 0.500784 F F F Al
0.751048 0.000000 0.751048 F F F Al
0.744550 0.254448 0.498466 F F F Al
0.498466 0.254448 0.744550 F F F Al
0.997436 0.500000 0.502441 F F F Al
0.251275 0.500000 0.746852 F F F Al
0.249808 0.752449 0.504529 F F F Al
0.999049 0.750917 0.752064 F F F Al
0.745618 0.500000 0.745618 F F F Al
0.744550 0.745552 0.498466 F F F Al
0.498466 0.745552 0.744550 F F F Al

0.000000 0.000000 0.000000
0.000000 0.000000 0.000000
0.000000 0.000000 0.000000
0.000000 0.000000 0.000000
0.000000 0.000000 0.000000
0.000000 0.000000 0.000000
0.000000 0.000000 0.000000
0.000000 0.000000 0.000000
0.000000 0.000000 0.000000
0.000000 0.000000 0.000000
0.000000 0.000000 0.000000
0.000000 0.000000 0.000000
0.000000 0.000000 0.000000
0.000000 0.000000 0.000000
0.000000 0.000000 0.000000
0.000000 0.000000 0.000000
0.000000 0.000000 0.000000
0.000000 0.000000 0.000000
0.000000 0.000000 0.000000
0.000000 0.000000 0.000000
0.000000 0.000000 0.000000
0.000000 0.000000 0.000000
0.000000 0.000000 0.000000
0.000000 0.000000 0.000000
0.000000 0.000000 0.000000
0.000000 0.000000 0.000000
0.000000 0.000000 0.000000
0.000000 0.000000 0.000000
0.000000 0.000000 0.000000
0.000000 0.000000 0.000000
0.000000 0.000000 0.000000
