Mg1 Al32
1.0
8.087040 0.000000 0.000000
0.000000 8.087040 0.000000
0.000000 0.000000 8.087040
Al Mg
32 1
direct
0.009702 0.009702 0.009702 Al
0.250830 0.015655 0.250830 Al
0.250830 0.250830 0.015655 Al
0.015655 0.250830 0.250830 Al
0.487213 0.004786 0.004786 Al
0.735895 0.027482 0.245812 Al
0.735895 0.245812 0.027482 Al
0.479400 0.242329 0.242329 Al
0.004786 0.487213 0.004786 Al
0.242329 0.479400 0.242329 Al
0.245812 0.735895 0.027482 Al
0.027482 0.735895 0.245812 Al
0.488029 0.488029 0.005401 Al
0.756760 0.482216 0.236605 Al
0.768771 0.768771 0.047216 Al
0.482216 0.756760 0.236605 Al
0.004786 0.004786 0.487213 Al
0.245812 0.027482 0.735895 Al
0.242329 0.242329 0.479400 Al
0.027482 0.245812 0.735895 Al
0.488029 0.005401 0.488029 Al
0.768771 0.047216 0.768771 Al
0.756760 0.236605 0.482216 Al
0.482216 0.236605 0.756760 Al
0.005401 0.488029 0.488029 Al
0.236605 0.482216 0.756760 Al
0.236605 0.756760 0.482216 Al
0.047216 0.768771 0.768771 Al
0.488980 0.488980 0.488980 Al
0.764902 0.400394 0.764902 Al
0.764902 0.764902 0.400394 Al
0.400394 0.764902 0.764902 Al
0.717204 0.717204 0.717204 Mg

0.000000 0.000000 0.000000
0.000000 0.000000 0.000000
0.000000 0.000000 0.000000
0.000000 0.000000 0.000000
0.000000 0.000000 0.000000
0.000000 0.000000 0.000000
0.000000 0.000000 0.000000
0.000000 0.000000 0.000000
0.000000 0.000000 0.000000
0.000000 0.000000 0.000000
0.000000 0.000000 0.000000
0.000000 0.000000 0.000000
0.000000 0.000000 0.000000
0.000000 0.000000 0.000000
0.000000 0.000000 0.000000
0.000000 0.000000 0.000000
0.000000 0.000000 0.000000
0.000000 0.000000 0.000000
0.000000 0.000000 0.000000
0.000000 0.000000 0.000000
0.000000 0.000000 0.000000
0.000000 0.000000 0.000000
0.000000 0.000000 0.000000
0.000000 0.000000 0.000000
0.000000 0.000000 0.000000
0.000000 0.000000 0.000000
0.000000 0.000000 0.000000
0.000000 0.000000 0.000000
0.000000 0.000000 0.000000
0.000000 0.000000 0.000000
0.000000 0.000000 0.000000
0.000000 0.000000 0.000000
0.000000 0.000000 0.000000
