Al31                                    
   1.00000000000000     
     8.0870519999999999    0.0000000000000000    0.0000000000000000
     0.0000000000000000    8.0870519999999999    0.0000000000000000
     0.0000000000000000    0.0000000000000000    8.0870519999999999
   Al
  31
Direct
  0.0000000000000000  0.0000000000000000  0.0000000000000000
  0.2504339676178727  0.0000000000000000  0.2504339676178727
  0.2504339676178727  0.2504339676178727  0.0000000000000000
  0.0000000000000000  0.2504339676178727  0.2504339676178727
  0.5000000000000000  0.0000000000000000  0.0000000000000000
  0.7495660323821273  0.0000000000000000  0.2504339676178727
  0.7495660323821273  0.2504339676178727  0.0000000000000000
  0.5000000000000000  0.2426554289762047  0.2426554289762047
  0.0000000000000000  0.5000000000000000  0.0000000000000000
  0.2426554289762047  0.5000000000000000  0.2426554289762047
  0.2504339676178727  0.7495660323821273  0.0000000000000000
  0.0000000000000000  0.7495660323821273  0.2504339676178727
  0.5000000000000000  0.5000000000000000  0.0000000000000000
  0.7573445710237953  0.5000000000000000  0.2426554289762047
  0.7495660323821273  0.7495660323821273  0.0000000000000000
  0.5000000000000000  0.7573445710237953  0.2426554289762047
  0.0000000000000000  0.0000000000000000  0.5000000000000000
  0.2504339676178727  0.0000000000000000  0.7495660323821273
  0.2426554289762047  0.2426554289762047  0.5000000000000000
  0.0000000000000000  0.2504339676178727  0.7495660323821273
  0.5000000000000000  0.0000000000000000  0.5000000000000000
  0.7495660323821273  0.0000000000000000  0.7495660323821273
  0.7573445710237953  0.2426554289762047  0.5000000000000000
  0.5000000000000000  0.2426554289762047  0.7573445710237953
  0.0000000000000000  0.5000000000000000  0.5000000000000000
  0.2426554289762047  0.5000000000000000  0.7573445710237953
  0.2426554289762047  0.7573445710237953  0.5000000000000000
  0.0000000000000000  0.7495660323821273  0.7495660323821273
  0.7573445710237953  0.5000000000000000  0.7573445710237953
  0.7573445710237953  0.7573445710237953  0.5000000000000000
  0.5000000000000000  0.7573445710237953  0.7573445710237953
 
  0.00000000E+00  0.00000000E+00  0.00000000E+00
  0.00000000E+00  0.00000000E+00  0.00000000E+00
  0.00000000E+00  0.00000000E+00  0.00000000E+00
  0.00000000E+00  0.00000000E+00  0.00000000E+00
  0.00000000E+00  0.00000000E+00  0.00000000E+00
  0.00000000E+00  0.00000000E+00  0.00000000E+00
  0.00000000E+00  0.00000000E+00  0.00000000E+00
  0.00000000E+00  0.00000000E+00  0.00000000E+00
  0.00000000E+00  0.00000000E+00  0.00000000E+00
  0.00000000E+00  0.00000000E+00  0.00000000E+00
  0.00000000E+00  0.00000000E+00  0.00000000E+00
  0.00000000E+00  0.00000000E+00  0.00000000E+00
  0.00000000E+00  0.00000000E+00  0.00000000E+00
  0.00000000E+00  0.00000000E+00  0.00000000E+00
  0.00000000E+00  0.00000000E+00  0.00000000E+00
  0.00000000E+00  0.00000000E+00  0.00000000E+00
  0.00000000E+00  0.00000000E+00  0.00000000E+00
  0.00000000E+00  0.00000000E+00  0.00000000E+00
  0.00000000E+00  0.00000000E+00  0.00000000E+00
  0.00000000E+00  0.00000000E+00  0.00000000E+00
  0.00000000E+00  0.00000000E+00  0.00000000E+00
  0.00000000E+00  0.00000000E+00  0.00000000E+00
  0.00000000E+00  0.00000000E+00  0.00000000E+00
  0.00000000E+00  0.00000000E+00  0.00000000E+00
  0.00000000E+00  0.00000000E+00  0.00000000E+00
  0.00000000E+00  0.00000000E+00  0.00000000E+00
  0.00000000E+00  0.00000000E+00  0.00000000E+00
  0.00000000E+00  0.00000000E+00  0.00000000E+00
  0.00000000E+00  0.00000000E+00  0.00000000E+00
  0.00000000E+00  0.00000000E+00  0.00000000E+00
  0.00000000E+00  0.00000000E+00  0.00000000E+00
