ENCUT = 313
IBRION = 2
ISPIN = 2
LCHARG = False
LWAVE = False
NELECT = 60.0
NSW = 100
