POSCAR_01:Al                            
   1.00000000000000     
    10.9063935957000009    0.0000000000000000    0.0000000000000000
     0.0000000000000000   10.9063935957000009    0.0000000000000000
     0.0000000000000000    0.0000000000000000   10.9063935957000009
   Al   Mg
     1   106
Direct
  0.0059207733042825  0.0000173528833471  0.0059782277930012
  0.0100389018162232  0.0000186373380728  0.3293895193462504
  0.0028089969663654  0.9999888403100883  0.6656607941668113
  0.0005056631016558  0.3330530614500731  0.0005682113981038
  0.9975442806311960  0.3371712291891740  0.3352061226947569
  0.0001892657433160  0.3323624679978110  0.6680080459324458
  0.0005500493784183  0.6669614143417277  0.0006119955251549
  0.9975230191464490  0.6627889456423688  0.3351880244610541
  0.0002108979477384  0.6676604955135730  0.6680107335146559
  0.3294914615393125  0.0000123614975251  0.0099744867513607
  0.2512074523217578  0.9998606530313339  0.2513406091252151
  0.3333179503096773  0.0000111772647458  0.6651837518336521
  0.3351895686698967  0.3372602248260108  0.9975376181984359
  0.3356768268820360  0.3373666663346810  0.3356381375789326
  0.3346397342405041  0.3316160614812276  0.6673286689469009
  0.3351800626501458  0.6626923696235636  0.9975144680235175
  0.3356849924267991  0.6626111139563093  0.3356414476477880
  0.3346256923621169  0.6684321601889351  0.6673252919715935
  0.6656072213973303  0.9999902837042356  0.0027904794232612
  0.6650842283682010  0.0000094859674604  0.3333338752246036
  0.6665143349491984  0.9999585821412111  0.6665314506559668
  0.6680757427810562  0.3324566624856686  0.0001593344121744
  0.6673295604003755  0.3316477567204359  0.3347266323466798
  0.6671844582446909  0.3317874726393910  0.6671287182051771
  0.6680871164556663  0.6675589405464493  0.0001812847841762
  0.6673224118035606  0.6683971403630551  0.3347183913695915
  0.6671702565575472  0.6682230622739240  0.6671138753458337
  0.0038754574906861  0.1677456408360314  0.1690818723484782
  0.0013404391955660  0.1665353230068476  0.5000602259282445
  0.0019537995068646  0.1658614039877975  0.8341879817436819
  0.9982394047364309  0.4999902165869017  0.1669472977597124
  0.9987143728375401  0.4999983571991606  0.5030743985539274
  0.0001155325315452  0.5000151579131114  0.8338606113665250
  0.0039447390340186  0.8323207139850268  0.1691128711169370
  0.0013337921464682  0.8334745149396667  0.5000708811519274
  0.0019867550570254  0.8341255616562080  0.8342242455737434
  0.3367348181285834  0.1810084570207593  0.1648958510012974
  0.3333094979254341  0.1657346390351151  0.4970541811563720
  0.3338896166021712  0.1653520534290607  0.8354716779704745
  0.3355065848254526  0.4999931677209446  0.1668648760006093
  0.3352575860879412  0.4999858793313194  0.5031292235209648
  0.3351358014238031  0.5000107841971584  0.8311495308478243
  0.3368478842989191  0.8188639333216727  0.1648262496226351
  0.3332818375673909  0.8343298811338116  0.4970099194237676
  0.3338632737729341  0.8346695186865603  0.8354989432995623
  0.6654296387095613  0.1650993186546046  0.1683590869958564
  0.6662905181937262  0.1648351683398772  0.4995960038536396
  0.6670255217020014  0.1651520015310268  0.8341059467826497
  0.6694479475934614  0.4999910989062428  0.1672609031496961
  0.6670785723381130  0.5000308910508267  0.5016493958400972
  0.6679701130662536  0.5000216808189393  0.8331674779624763
  0.6653992787303196  0.8349330729258142  0.1683734427378312
  0.6662672218906494  0.8351572710590816  0.4995684306946089
  0.6670334016088688  0.8347873523049287  0.8341100032014737
  0.1719911368128919  0.0000292425528556  0.4914324404764869
  0.1691253331095623  0.0000047843218027  0.8359704629372899
  0.1664895156403006  0.3380842180299766  0.1664558424428293
  0.1670829448119733  0.3366171229254675  0.5039308081534415
  0.1677765774431563  0.3322071269063329  0.8330531360481146
  0.1665028455412525  0.6619048149101090  0.1664640719076971
  0.1670950486632634  0.6633246906317964  0.5039740660887659
  0.1677701745964058  0.6678408589456808  0.8330796286005082
  0.4915452092235313  0.0000250221051843  0.1718817368524626
  0.4972350971326378  0.0000174903821346  0.4972834519569176
  0.4988585887158052  0.9999843973001177  0.8355298653481071
  0.5039197262816515  0.3366800809852464  0.1670785319846999
  0.5008988072787588  0.3319104304685325  0.5009445105790249
  0.5015453363356031  0.3322632267418584  0.8328146600386361
  0.5039779078926969  0.6632539277895617  0.1670888072107175
  0.5008580231573205  0.6681188733386847  0.5009060371809184
  0.5015245933287247  0.6677678566621665  0.8328269079550310
  0.8358396357614097  0.0000084645993539  0.1691323097785329
  0.8354741196194411  0.9999857701216257  0.4988611371230363
  0.8345523890609599  0.9999486203579693  0.8345697794564373
  0.8330618264716065  0.3321948715407999  0.1678636096127590
  0.8328987491259454  0.3321738397117855  0.5015362881250809
  0.8338942574750234  0.3320897093891801  0.8338354945728312
  0.8330775078404571  0.6678504255079929  0.1678603731176906
  0.8329134145190622  0.6678623360442444  0.5015148142073329
  0.8339220697942835  0.6678981884213897  0.8338596700464507
  0.1690667168363902  0.1677596716602068  0.0039001311270042
  0.1649607359043230  0.1811191937195602  0.3366974362680821
  0.1683425313194888  0.1650045848083792  0.6654780471647328
  0.1668540277385446  0.4999870827902200  0.9982272218773147
  0.1668651995793482  0.4999900727185675  0.3355005142404650
  0.1671666139664012  0.5000054762993926  0.6693761099826148
  0.1691008126851443  0.8323017036528313  0.0039804858477623
  0.1648930441577718  0.8187555467458054  0.3367967813041304
  0.1683495019209076  0.8350276845771560  0.6654503708335042
  0.5001190000077358  0.1666905927418227  0.0012812080545501
  0.4970115034763793  0.1657361674829403  0.3332878633917744
  0.4995758392915306  0.1648320023712770  0.6663561246582645
  0.5031384034865169  0.4999936510959486  0.9986456744092962
  0.5031449124188185  0.4999807099180202  0.3353388599324987
  0.5016091022859683  0.5000322964645960  0.6670033351209881
  0.5001379735432039  0.8333100123089707  0.0012703333424824
  0.4969622493743842  0.8343208276839036  0.3332690192041667
  0.4995427257845222  0.8351613698125959  0.6663392582541761
  0.8341201818276005  0.1658686711820678  0.0019794254485248
  0.8354054233177450  0.1652801948570257  0.3339125434909889
  0.8341432359880301  0.1651030802376567  0.6669978057978980
  0.8339198353698052  0.5000141239974667  0.0001410212344055
  0.8312410635077967  0.5000197305077663  0.3352381358267138
  0.8332914545436196  0.5000203393067864  0.6678708593911153
  0.8341514090466262  0.8341199777947494  0.0020119597521600
  0.8354328521655887  0.8347470886688981  0.3338876476303554
  0.8341555480961134  0.8348340764949995  0.6669987198238019
 
  0.00000000E+00  0.00000000E+00  0.00000000E+00
  0.00000000E+00  0.00000000E+00  0.00000000E+00
  0.00000000E+00  0.00000000E+00  0.00000000E+00
  0.00000000E+00  0.00000000E+00  0.00000000E+00
  0.00000000E+00  0.00000000E+00  0.00000000E+00
  0.00000000E+00  0.00000000E+00  0.00000000E+00
  0.00000000E+00  0.00000000E+00  0.00000000E+00
  0.00000000E+00  0.00000000E+00  0.00000000E+00
  0.00000000E+00  0.00000000E+00  0.00000000E+00
  0.00000000E+00  0.00000000E+00  0.00000000E+00
  0.00000000E+00  0.00000000E+00  0.00000000E+00
  0.00000000E+00  0.00000000E+00  0.00000000E+00
  0.00000000E+00  0.00000000E+00  0.00000000E+00
  0.00000000E+00  0.00000000E+00  0.00000000E+00
  0.00000000E+00  0.00000000E+00  0.00000000E+00
  0.00000000E+00  0.00000000E+00  0.00000000E+00
  0.00000000E+00  0.00000000E+00  0.00000000E+00
  0.00000000E+00  0.00000000E+00  0.00000000E+00
  0.00000000E+00  0.00000000E+00  0.00000000E+00
  0.00000000E+00  0.00000000E+00  0.00000000E+00
  0.00000000E+00  0.00000000E+00  0.00000000E+00
  0.00000000E+00  0.00000000E+00  0.00000000E+00
  0.00000000E+00  0.00000000E+00  0.00000000E+00
  0.00000000E+00  0.00000000E+00  0.00000000E+00
  0.00000000E+00  0.00000000E+00  0.00000000E+00
  0.00000000E+00  0.00000000E+00  0.00000000E+00
  0.00000000E+00  0.00000000E+00  0.00000000E+00
  0.00000000E+00  0.00000000E+00  0.00000000E+00
  0.00000000E+00  0.00000000E+00  0.00000000E+00
  0.00000000E+00  0.00000000E+00  0.00000000E+00
  0.00000000E+00  0.00000000E+00  0.00000000E+00
  0.00000000E+00  0.00000000E+00  0.00000000E+00
  0.00000000E+00  0.00000000E+00  0.00000000E+00
  0.00000000E+00  0.00000000E+00  0.00000000E+00
  0.00000000E+00  0.00000000E+00  0.00000000E+00
  0.00000000E+00  0.00000000E+00  0.00000000E+00
  0.00000000E+00  0.00000000E+00  0.00000000E+00
  0.00000000E+00  0.00000000E+00  0.00000000E+00
  0.00000000E+00  0.00000000E+00  0.00000000E+00
  0.00000000E+00  0.00000000E+00  0.00000000E+00
  0.00000000E+00  0.00000000E+00  0.00000000E+00
  0.00000000E+00  0.00000000E+00  0.00000000E+00
  0.00000000E+00  0.00000000E+00  0.00000000E+00
  0.00000000E+00  0.00000000E+00  0.00000000E+00
  0.00000000E+00  0.00000000E+00  0.00000000E+00
  0.00000000E+00  0.00000000E+00  0.00000000E+00
  0.00000000E+00  0.00000000E+00  0.00000000E+00
  0.00000000E+00  0.00000000E+00  0.00000000E+00
  0.00000000E+00  0.00000000E+00  0.00000000E+00
  0.00000000E+00  0.00000000E+00  0.00000000E+00
  0.00000000E+00  0.00000000E+00  0.00000000E+00
  0.00000000E+00  0.00000000E+00  0.00000000E+00
  0.00000000E+00  0.00000000E+00  0.00000000E+00
  0.00000000E+00  0.00000000E+00  0.00000000E+00
  0.00000000E+00  0.00000000E+00  0.00000000E+00
  0.00000000E+00  0.00000000E+00  0.00000000E+00
  0.00000000E+00  0.00000000E+00  0.00000000E+00
  0.00000000E+00  0.00000000E+00  0.00000000E+00
  0.00000000E+00  0.00000000E+00  0.00000000E+00
  0.00000000E+00  0.00000000E+00  0.00000000E+00
  0.00000000E+00  0.00000000E+00  0.00000000E+00
  0.00000000E+00  0.00000000E+00  0.00000000E+00
  0.00000000E+00  0.00000000E+00  0.00000000E+00
  0.00000000E+00  0.00000000E+00  0.00000000E+00
  0.00000000E+00  0.00000000E+00  0.00000000E+00
  0.00000000E+00  0.00000000E+00  0.00000000E+00
  0.00000000E+00  0.00000000E+00  0.00000000E+00
  0.00000000E+00  0.00000000E+00  0.00000000E+00
  0.00000000E+00  0.00000000E+00  0.00000000E+00
  0.00000000E+00  0.00000000E+00  0.00000000E+00
  0.00000000E+00  0.00000000E+00  0.00000000E+00
  0.00000000E+00  0.00000000E+00  0.00000000E+00
  0.00000000E+00  0.00000000E+00  0.00000000E+00
  0.00000000E+00  0.00000000E+00  0.00000000E+00
  0.00000000E+00  0.00000000E+00  0.00000000E+00
  0.00000000E+00  0.00000000E+00  0.00000000E+00
  0.00000000E+00  0.00000000E+00  0.00000000E+00
  0.00000000E+00  0.00000000E+00  0.00000000E+00
  0.00000000E+00  0.00000000E+00  0.00000000E+00
  0.00000000E+00  0.00000000E+00  0.00000000E+00
  0.00000000E+00  0.00000000E+00  0.00000000E+00
  0.00000000E+00  0.00000000E+00  0.00000000E+00
  0.00000000E+00  0.00000000E+00  0.00000000E+00
  0.00000000E+00  0.00000000E+00  0.00000000E+00
  0.00000000E+00  0.00000000E+00  0.00000000E+00
  0.00000000E+00  0.00000000E+00  0.00000000E+00
  0.00000000E+00  0.00000000E+00  0.00000000E+00
  0.00000000E+00  0.00000000E+00  0.00000000E+00
  0.00000000E+00  0.00000000E+00  0.00000000E+00
  0.00000000E+00  0.00000000E+00  0.00000000E+00
  0.00000000E+00  0.00000000E+00  0.00000000E+00
  0.00000000E+00  0.00000000E+00  0.00000000E+00
  0.00000000E+00  0.00000000E+00  0.00000000E+00
  0.00000000E+00  0.00000000E+00  0.00000000E+00
  0.00000000E+00  0.00000000E+00  0.00000000E+00
  0.00000000E+00  0.00000000E+00  0.00000000E+00
  0.00000000E+00  0.00000000E+00  0.00000000E+00
  0.00000000E+00  0.00000000E+00  0.00000000E+00
  0.00000000E+00  0.00000000E+00  0.00000000E+00
  0.00000000E+00  0.00000000E+00  0.00000000E+00
  0.00000000E+00  0.00000000E+00  0.00000000E+00
  0.00000000E+00  0.00000000E+00  0.00000000E+00
  0.00000000E+00  0.00000000E+00  0.00000000E+00
  0.00000000E+00  0.00000000E+00  0.00000000E+00
  0.00000000E+00  0.00000000E+00  0.00000000E+00
  0.00000000E+00  0.00000000E+00  0.00000000E+00
  0.00000000E+00  0.00000000E+00  0.00000000E+00
