POSCAR_01:Al                            
   1.00000000000000     
    10.9063935957000009    0.0000000000000000    0.0000000000000000
     0.0000000000000000   10.9063935957000009    0.0000000000000000
     0.0000000000000000    0.0000000000000000   10.9063935957000009
   Al   Mg
     1   106
Direct
  0.0059207733042834  1.0000173528833456  0.0059782277929980
  0.0100389018162263  1.0000186373380739  0.3293895193462539
  0.0028089969663625  0.9999888403100869  0.6656607941668086
  0.0005056631016558  0.3330530614500753  0.0005682113981035
 -0.0024557193688060  0.3371712291891752  0.3352061226947580
  0.0001892657433132  0.3323624679978121  0.6680080459324423
  0.0005500493784160  0.6669614143417263  0.0006119955251554
 -0.0024769808535492  0.6627889456423663  0.3351880244610576
  0.0002108979477364  0.6676604955135731  0.6680107335146571
  0.3294914615393160  1.0000123614975278  0.0099744867513638
  0.2512074523217587 -0.0001393469686656  0.2513406091252117
  0.3333179503096781  1.0000111772647462  0.6651837518336509
  0.3351895686698964  0.3372602248260098 -0.0024623818015655
  0.3356768268820370  0.3373666663346830  0.3356381375789324
  0.3346397342405029  0.3316160614812288  0.6673286689469041
  0.3351800626501473  0.6626923696235626 -0.0024855319764820
  0.3356849924268003  0.6626111139563121  0.3356414476477895
  0.3346256923621203  0.6684321601889334  0.6673252919715944
  0.6656072213973322  0.9999902837042363  0.0027904794232596
  0.6650842283681987  1.0000094859674629  0.3333338752246047
  0.6665143349492013  0.9999585821412144  0.6665314506559660
  0.6680757427810583  0.3324566624856673  0.0001593344121724
  0.6673295604003741  0.3316477567204388  0.3347266323466770
  0.6671844582446895  0.3317874726393936  0.6671287182051744
  0.6680871164556674  0.6675589405464506  0.0001812847841741
  0.6673224118035600  0.6683971403630526  0.3347183913695937
  0.6671702565575459  0.6682230622739223  0.6671138753458340
  0.0038754574906851  0.1677456408360311  0.1690818723484808
  0.0013404391955639  0.1665353230068443  0.5000602259282464
  0.0019537995068675  0.1658614039877990  0.8341879817436822
 -0.0017605952635671  0.4999902165869038  0.1669472977597100
 -0.0012856271624626  0.4999983571991635  0.5030743985539260
  0.0001155325315473  0.5000151579131130  0.8338606113665230
  0.0039447390340172  0.8323207139850264  0.1691128711169405
  0.0013337921464647  0.8334745149396642  0.5000708811519256
  0.0019867550570274  0.8341255616562052  0.8342242455737464
  0.3367348181285811  0.1810084570207584  0.1648958510012972
  0.3333094979254362  0.1657346390351140  0.4970541811563737
  0.3338896166021703  0.1653520534290621  0.8354716779704781
  0.3355065848254529  0.4999931677209420  0.1668648760006091
  0.3352575860879379  0.4999858793313206  0.5031292235209632
  0.3351358014238018  0.5000107841971619  0.8311495308478256
  0.3368478842989199  0.8188639333216717  0.1648262496226326
  0.3332818375673914  0.8343298811338106  0.4970099194237694
  0.3338632737729353  0.8346695186865590  0.8354989432995612
  0.6654296387095620  0.1650993186546057  0.1683590869958533
  0.6662905181937273  0.1648351683398797  0.4995960038536409
  0.6670255217019988  0.1651520015310265  0.8341059467826494
  0.6694479475934597  0.4999910989062401  0.1672609031496994
  0.6670785723381162  0.5000308910508239  0.5016493958401000
  0.6679701130662539  0.5000216808189358  0.8331674779624779
  0.6653992787303206  0.8349330729258171  0.1683734427378321
  0.6662672218906475  0.8351572710590837  0.4995684306946105
  0.6670334016088666  0.8347873523049283  0.8341100032014747
  0.1719911368128893  1.0000292425528590  0.4914324404764893
  0.1691253331095603  1.0000047843217992  0.8359704629372881
  0.1664895156403035  0.3380842180299772  0.1664558424428282
  0.1670829448119761  0.3366171229254653  0.5039308081534403
  0.1677765774431546  0.3322071269063364  0.8330531360481140
  0.1665028455412514  0.6619048149101078  0.1664640719076944
  0.1670950486632659  0.6633246906317986  0.5039740660887645
  0.1677701745964066  0.6678408589456812  0.8330796286005113
  0.4915452092235322  1.0000250221051814  0.1718817368524611
  0.4972350971326407  1.0000174903821335  0.4972834519569170
  0.4988585887158056  0.9999843973001175  0.8355298653481071
  0.5039197262816481  0.3366800809852460  0.1670785319846980
  0.5008988072787619  0.3319104304685323  0.5009445105790220
  0.5015453363356009  0.3322632267418567  0.8328146600386371
  0.5039779078926979  0.6632539277895597  0.1670888072107183
  0.5008580231573195  0.6681188733386840  0.5009060371809155
  0.5015245933287243  0.6677678566621638  0.8328269079550341
  0.8358396357614117  1.0000084645993552  0.1691323097785294
  0.8354741196194432  0.9999857701216281  0.4988611371230376
  0.8345523890609591  0.9999486203579674  0.8345697794564372
  0.8330618264716032  0.3321948715408012  0.1678636096127576
  0.8328987491259454  0.3321738397117850  0.5015362881250796
  0.8338942574750203  0.3320897093891785  0.8338354945728285
  0.8330775078404589  0.6678504255079916  0.1678603731176879
  0.8329134145190629  0.6678623360442472  0.5015148142073325
  0.8339220697942843  0.6678981884213880  0.8338596700464527
  0.1690667168363894  0.1677596716602096  0.0039001311270038
  0.1649607359043244  0.1811191937195622  0.3366974362680793
  0.1683425313194885  0.1650045848083776  0.6654780471647301
  0.1668540277385437  0.4999870827902191 -0.0017727781226842
  0.1668651995793492  0.4999900727185653  0.3355005142404631
  0.1671666139663981  0.5000054762993925  0.6693761099826142
  0.1691008126851460  0.8323017036528314  0.0039804858477652
  0.1648930441577726  0.8187555467458026  0.3367967813041330
  0.1683495019209052  0.8350276845771575  0.6654503708335060
  0.5001190000077385  0.1666905927418239  0.0012812080545511
  0.4970115034763761  0.1657361674829414  0.3332878633917735
  0.4995758392915292  0.1648320023712764  0.6663561246582654
  0.5031384034865189  0.4999936510959513 -0.0013543255907053
  0.5031449124188190  0.4999807099180176  0.3353388599325013
  0.5016091022859664  0.5000322964645975  0.6670033351209846
  0.5001379735432061  0.8333100123089688  0.0012703333424801
  0.4969622493743810  0.8343208276839053  0.3332690192041698
  0.4995427257845241  0.8351613698125971  0.6663392582541727
  0.8341201818276008  0.1658686711820694  0.0019794254485266
  0.8354054233177440  0.1652801948570282  0.3339125434909900
  0.8341432359880299  0.1651030802376578  0.6669978057978957
  0.8339198353698046  0.5000141239974681  0.0001410212344073
  0.8312410635077992  0.5000197305077663  0.3352381358267129
  0.8332914545436182  0.5000203393067894  0.6678708593911180
  0.8341514090466283  0.8341199777947503  0.0020119597521618
  0.8354328521655857  0.8347470886688968  0.3338876476303564
  0.8341555480961131  0.8348340764949989  0.6669987198238011
 
  0.00000000E+00  0.00000000E+00  0.00000000E+00
  0.00000000E+00  0.00000000E+00  0.00000000E+00
  0.00000000E+00  0.00000000E+00  0.00000000E+00
  0.00000000E+00  0.00000000E+00  0.00000000E+00
  0.00000000E+00  0.00000000E+00  0.00000000E+00
  0.00000000E+00  0.00000000E+00  0.00000000E+00
  0.00000000E+00  0.00000000E+00  0.00000000E+00
  0.00000000E+00  0.00000000E+00  0.00000000E+00
  0.00000000E+00  0.00000000E+00  0.00000000E+00
  0.00000000E+00  0.00000000E+00  0.00000000E+00
  0.00000000E+00  0.00000000E+00  0.00000000E+00
  0.00000000E+00  0.00000000E+00  0.00000000E+00
  0.00000000E+00  0.00000000E+00  0.00000000E+00
  0.00000000E+00  0.00000000E+00  0.00000000E+00
  0.00000000E+00  0.00000000E+00  0.00000000E+00
  0.00000000E+00  0.00000000E+00  0.00000000E+00
  0.00000000E+00  0.00000000E+00  0.00000000E+00
  0.00000000E+00  0.00000000E+00  0.00000000E+00
  0.00000000E+00  0.00000000E+00  0.00000000E+00
  0.00000000E+00  0.00000000E+00  0.00000000E+00
  0.00000000E+00  0.00000000E+00  0.00000000E+00
  0.00000000E+00  0.00000000E+00  0.00000000E+00
  0.00000000E+00  0.00000000E+00  0.00000000E+00
  0.00000000E+00  0.00000000E+00  0.00000000E+00
  0.00000000E+00  0.00000000E+00  0.00000000E+00
  0.00000000E+00  0.00000000E+00  0.00000000E+00
  0.00000000E+00  0.00000000E+00  0.00000000E+00
  0.00000000E+00  0.00000000E+00  0.00000000E+00
  0.00000000E+00  0.00000000E+00  0.00000000E+00
  0.00000000E+00  0.00000000E+00  0.00000000E+00
  0.00000000E+00  0.00000000E+00  0.00000000E+00
  0.00000000E+00  0.00000000E+00  0.00000000E+00
  0.00000000E+00  0.00000000E+00  0.00000000E+00
  0.00000000E+00  0.00000000E+00  0.00000000E+00
  0.00000000E+00  0.00000000E+00  0.00000000E+00
  0.00000000E+00  0.00000000E+00  0.00000000E+00
  0.00000000E+00  0.00000000E+00  0.00000000E+00
  0.00000000E+00  0.00000000E+00  0.00000000E+00
  0.00000000E+00  0.00000000E+00  0.00000000E+00
  0.00000000E+00  0.00000000E+00  0.00000000E+00
  0.00000000E+00  0.00000000E+00  0.00000000E+00
  0.00000000E+00  0.00000000E+00  0.00000000E+00
  0.00000000E+00  0.00000000E+00  0.00000000E+00
  0.00000000E+00  0.00000000E+00  0.00000000E+00
  0.00000000E+00  0.00000000E+00  0.00000000E+00
  0.00000000E+00  0.00000000E+00  0.00000000E+00
  0.00000000E+00  0.00000000E+00  0.00000000E+00
  0.00000000E+00  0.00000000E+00  0.00000000E+00
  0.00000000E+00  0.00000000E+00  0.00000000E+00
  0.00000000E+00  0.00000000E+00  0.00000000E+00
  0.00000000E+00  0.00000000E+00  0.00000000E+00
  0.00000000E+00  0.00000000E+00  0.00000000E+00
  0.00000000E+00  0.00000000E+00  0.00000000E+00
  0.00000000E+00  0.00000000E+00  0.00000000E+00
  0.00000000E+00  0.00000000E+00  0.00000000E+00
  0.00000000E+00  0.00000000E+00  0.00000000E+00
  0.00000000E+00  0.00000000E+00  0.00000000E+00
  0.00000000E+00  0.00000000E+00  0.00000000E+00
  0.00000000E+00  0.00000000E+00  0.00000000E+00
  0.00000000E+00  0.00000000E+00  0.00000000E+00
  0.00000000E+00  0.00000000E+00  0.00000000E+00
  0.00000000E+00  0.00000000E+00  0.00000000E+00
  0.00000000E+00  0.00000000E+00  0.00000000E+00
  0.00000000E+00  0.00000000E+00  0.00000000E+00
  0.00000000E+00  0.00000000E+00  0.00000000E+00
  0.00000000E+00  0.00000000E+00  0.00000000E+00
  0.00000000E+00  0.00000000E+00  0.00000000E+00
  0.00000000E+00  0.00000000E+00  0.00000000E+00
  0.00000000E+00  0.00000000E+00  0.00000000E+00
  0.00000000E+00  0.00000000E+00  0.00000000E+00
  0.00000000E+00  0.00000000E+00  0.00000000E+00
  0.00000000E+00  0.00000000E+00  0.00000000E+00
  0.00000000E+00  0.00000000E+00  0.00000000E+00
  0.00000000E+00  0.00000000E+00  0.00000000E+00
  0.00000000E+00  0.00000000E+00  0.00000000E+00
  0.00000000E+00  0.00000000E+00  0.00000000E+00
  0.00000000E+00  0.00000000E+00  0.00000000E+00
  0.00000000E+00  0.00000000E+00  0.00000000E+00
  0.00000000E+00  0.00000000E+00  0.00000000E+00
  0.00000000E+00  0.00000000E+00  0.00000000E+00
  0.00000000E+00  0.00000000E+00  0.00000000E+00
  0.00000000E+00  0.00000000E+00  0.00000000E+00
  0.00000000E+00  0.00000000E+00  0.00000000E+00
  0.00000000E+00  0.00000000E+00  0.00000000E+00
  0.00000000E+00  0.00000000E+00  0.00000000E+00
  0.00000000E+00  0.00000000E+00  0.00000000E+00
  0.00000000E+00  0.00000000E+00  0.00000000E+00
  0.00000000E+00  0.00000000E+00  0.00000000E+00
  0.00000000E+00  0.00000000E+00  0.00000000E+00
  0.00000000E+00  0.00000000E+00  0.00000000E+00
  0.00000000E+00  0.00000000E+00  0.00000000E+00
  0.00000000E+00  0.00000000E+00  0.00000000E+00
  0.00000000E+00  0.00000000E+00  0.00000000E+00
  0.00000000E+00  0.00000000E+00  0.00000000E+00
  0.00000000E+00  0.00000000E+00  0.00000000E+00
  0.00000000E+00  0.00000000E+00  0.00000000E+00
  0.00000000E+00  0.00000000E+00  0.00000000E+00
  0.00000000E+00  0.00000000E+00  0.00000000E+00
  0.00000000E+00  0.00000000E+00  0.00000000E+00
  0.00000000E+00  0.00000000E+00  0.00000000E+00
  0.00000000E+00  0.00000000E+00  0.00000000E+00
  0.00000000E+00  0.00000000E+00  0.00000000E+00
  0.00000000E+00  0.00000000E+00  0.00000000E+00
  0.00000000E+00  0.00000000E+00  0.00000000E+00
  0.00000000E+00  0.00000000E+00  0.00000000E+00
  0.00000000E+00  0.00000000E+00  0.00000000E+00
  0.00000000E+00  0.00000000E+00  0.00000000E+00
