Mg1 Al30                                
   1.00000000000000     
     8.0870519999999999    0.0000000000000000    0.0000000000000000
     0.0000000000000000    8.0870519999999999    0.0000000000000000
     0.0000000000000000    0.0000000000000000    8.0870519999999999
   Al   Mg
  30   1
Direct
 -0.0021639555185215  0.0000000000000000 -0.0021639555185215
  0.2481655198682079  0.0000000000000000  0.2481655198682079
  0.2447579048242394  0.2424615125705679 -0.0052552875239720
 -0.0052552875239720  0.2424615125705679  0.2447579048242394
  0.5033005416475863  0.0000000000000000 -0.0043654590721554
  0.7551984523888049  0.0000000000000000  0.2461569513673251
  0.7546633834769212  0.2435046505075862 -0.0027248074821397
  0.5081829663521501  0.2286715745529941  0.2388370038150333
 -0.0061865613678269  0.5000000000000000 -0.0061865613678269
  0.2447579048242394  0.7575384874294321 -0.0052552875239720
 -0.0052552875239720  0.7575384874294321  0.2447579048242394
  0.5107906809815262  0.5000000000000000 -0.0062504630793806
  0.7614002475860299  0.5000000000000000  0.2360568357772744
  0.7546633834769212  0.7564953494924138 -0.0027248074821397
  0.5081829663521501  0.7713284254470057  0.2388370038150333
 -0.0043654590721554  0.0000000000000000  0.5033005416475863
  0.2461569513673251  0.0000000000000000  0.7551984523888049
  0.2388370038150333  0.2286715745529941  0.5081829663521501
 -0.0027248074821397  0.2435046505075862  0.7546633834769212
  0.4996344148949625  0.0000000000000000  0.4996344148949625
  0.7555025971619415  0.0000000000000000  0.7555025971619415
  0.7590642794887491  0.2398076399220397  0.5017773263722727
  0.5017773263722727  0.2398076399220397  0.7590642794887491
 -0.0062504630793806  0.5000000000000000  0.5107906809815262
  0.2360568357772744  0.5000000000000000  0.7614002475860299
  0.2388370038150333  0.7713284254470057  0.5081829663521501
 -0.0027248074821397  0.7564953494924138  0.7546633834769212
  0.7600028348306456  0.5000000000000000  0.7600028348306456
  0.7590642794887491  0.7601923600779603  0.5017773263722727
  0.5017773263722727  0.7601923600779603  0.7590642794887491
  0.4941518238870719  0.5000000000000000  0.4941518238870719
 
  0.00000000E+00  0.00000000E+00  0.00000000E+00
  0.00000000E+00  0.00000000E+00  0.00000000E+00
  0.00000000E+00  0.00000000E+00  0.00000000E+00
  0.00000000E+00  0.00000000E+00  0.00000000E+00
  0.00000000E+00  0.00000000E+00  0.00000000E+00
  0.00000000E+00  0.00000000E+00  0.00000000E+00
  0.00000000E+00  0.00000000E+00  0.00000000E+00
  0.00000000E+00  0.00000000E+00  0.00000000E+00
  0.00000000E+00  0.00000000E+00  0.00000000E+00
  0.00000000E+00  0.00000000E+00  0.00000000E+00
  0.00000000E+00  0.00000000E+00  0.00000000E+00
  0.00000000E+00  0.00000000E+00  0.00000000E+00
  0.00000000E+00  0.00000000E+00  0.00000000E+00
  0.00000000E+00  0.00000000E+00  0.00000000E+00
  0.00000000E+00  0.00000000E+00  0.00000000E+00
  0.00000000E+00  0.00000000E+00  0.00000000E+00
  0.00000000E+00  0.00000000E+00  0.00000000E+00
  0.00000000E+00  0.00000000E+00  0.00000000E+00
  0.00000000E+00  0.00000000E+00  0.00000000E+00
  0.00000000E+00  0.00000000E+00  0.00000000E+00
  0.00000000E+00  0.00000000E+00  0.00000000E+00
  0.00000000E+00  0.00000000E+00  0.00000000E+00
  0.00000000E+00  0.00000000E+00  0.00000000E+00
  0.00000000E+00  0.00000000E+00  0.00000000E+00
  0.00000000E+00  0.00000000E+00  0.00000000E+00
  0.00000000E+00  0.00000000E+00  0.00000000E+00
  0.00000000E+00  0.00000000E+00  0.00000000E+00
  0.00000000E+00  0.00000000E+00  0.00000000E+00
  0.00000000E+00  0.00000000E+00  0.00000000E+00
  0.00000000E+00  0.00000000E+00  0.00000000E+00
  0.00000000E+00  0.00000000E+00  0.00000000E+00
