EDIFFG = 5e-2
ENCUT = 300
IALGO = 48
IBRION = 2
ISIF = 2
ISMEAR = 1
LCHARG = False
LWAVE = False
NELECT = 92.0
NSW = 191
PREC = Accurate
SIGMA = 0.2
