ENCUT = 300.375
IBRION = -1
ISIF = 3
ISMEAR = 1
LCHARG = False
LWAVE = False
NSW = 0
PREC = Accurate
SIGMA = 0.2
