BCC
1 
5.75 0 0
0 5.75 0
0 0 5.75
Fe
16
Direct
0.00 0.00 0.00
0.25 0.25 0.25
0.50 0.00 0.00
0.75 0.25 0.25
0.00 0.50 0.00
0.25 0.75 0.25
0.00 0.00 0.50
0.25 0.25 0.75
0.50 0.50 0.00
0.75 0.75 0.25
0.50 0.00 0.50
0.75 0.25 0.75
0.00 0.50 0.50
0.25 0.75 0.75
0.50 0.50 0.50
0.75 0.75 0.75
