Ga3 As4
1.0
5.626600 0.000000 0.000000
0.000000 5.626600 0.000000
0.000000 0.000000 5.626600
Ga As
3 4
direct
0.500000 0.500000 0.000000 Ga
0.000000 0.500000 0.500000 Ga
0.500000 0.000000 0.500000 Ga
0.233330 0.233330 0.233330 As
0.766670 0.766670 0.233330 As
0.233330 0.766670 0.766670 As
0.766670 0.233330 0.766670 As

0.000000 0.000000 0.000000
0.000000 0.000000 0.000000
0.000000 0.000000 0.000000
0.000000 0.000000 0.000000
0.000000 0.000000 0.000000
0.000000 0.000000 0.000000
0.000000 0.000000 0.000000
