La64 Mn64 O192
1.0
15.758645 0.000000 0.000000
0.000000 15.758645 0.000000
0.000000 0.000000 15.758645
La Mn O
64 64 192
direct
0.000000 0.000000 0.000000 La
0.000000 0.000000 0.500000 La
0.000000 0.500000 0.000000 La
0.000000 0.500000 0.500000 La
0.500000 0.000000 0.000000 La
0.500000 0.000000 0.500000 La
0.500000 0.500000 0.000000 La
0.500000 0.500000 0.500000 La
0.000000 0.000000 0.250000 La
0.000000 0.000000 0.750000 La
0.000000 0.500000 0.250000 La
0.000000 0.500000 0.750000 La
0.500000 0.000000 0.250000 La
0.500000 0.000000 0.750000 La
0.500000 0.500000 0.250000 La
0.500000 0.500000 0.750000 La
0.000000 0.250000 0.000000 La
0.000000 0.250000 0.500000 La
0.000000 0.750000 0.000000 La
0.000000 0.750000 0.500000 La
0.500000 0.250000 0.000000 La
0.500000 0.250000 0.500000 La
0.500000 0.750000 0.000000 La
0.500000 0.750000 0.500000 La
0.000000 0.250000 0.250000 La
0.000000 0.250000 0.750000 La
0.000000 0.750000 0.250000 La
0.000000 0.750000 0.750000 La
0.500000 0.250000 0.250000 La
0.500000 0.250000 0.750000 La
0.500000 0.750000 0.250000 La
0.500000 0.750000 0.750000 La
0.250000 0.000000 0.000000 La
0.250000 0.000000 0.500000 La
0.250000 0.500000 0.000000 La
0.250000 0.500000 0.500000 La
0.750000 0.000000 0.000000 La
0.750000 0.000000 0.500000 La
0.750000 0.500000 0.000000 La
0.750000 0.500000 0.500000 La
0.250000 0.000000 0.250000 La
0.250000 0.000000 0.750000 La
0.250000 0.500000 0.250000 La
0.250000 0.500000 0.750000 La
0.750000 0.000000 0.250000 La
0.750000 0.000000 0.750000 La
0.750000 0.500000 0.250000 La
0.750000 0.500000 0.750000 La
0.250000 0.250000 0.000000 La
0.250000 0.250000 0.500000 La
0.250000 0.750000 0.000000 La
0.250000 0.750000 0.500000 La
0.750000 0.250000 0.000000 La
0.750000 0.250000 0.500000 La
0.750000 0.750000 0.000000 La
0.750000 0.750000 0.500000 La
0.250000 0.250000 0.250000 La
0.250000 0.250000 0.750000 La
0.250000 0.750000 0.250000 La
0.250000 0.750000 0.750000 La
0.750000 0.250000 0.250000 La
0.750000 0.250000 0.750000 La
0.750000 0.750000 0.250000 La
0.750000 0.750000 0.750000 La
0.125000 0.125000 0.125000 Mn
0.125000 0.125000 0.625000 Mn
0.125000 0.625000 0.125000 Mn
0.125000 0.625000 0.625000 Mn
0.625000 0.125000 0.125000 Mn
0.625000 0.125000 0.625000 Mn
0.625000 0.625000 0.125000 Mn
0.625000 0.625000 0.625000 Mn
0.125000 0.125000 0.375000 Mn
0.125000 0.125000 0.875000 Mn
0.125000 0.625000 0.375000 Mn
0.125000 0.625000 0.875000 Mn
0.625000 0.125000 0.375000 Mn
0.625000 0.125000 0.875000 Mn
0.625000 0.625000 0.375000 Mn
0.625000 0.625000 0.875000 Mn
0.125000 0.375000 0.125000 Mn
0.125000 0.375000 0.625000 Mn
0.125000 0.875000 0.125000 Mn
0.125000 0.875000 0.625000 Mn
0.625000 0.375000 0.125000 Mn
0.625000 0.375000 0.625000 Mn
0.625000 0.875000 0.125000 Mn
0.625000 0.875000 0.625000 Mn
0.125000 0.375000 0.375000 Mn
0.125000 0.375000 0.875000 Mn
0.125000 0.875000 0.375000 Mn
0.125000 0.875000 0.875000 Mn
0.625000 0.375000 0.375000 Mn
0.625000 0.375000 0.875000 Mn
0.625000 0.875000 0.375000 Mn
0.625000 0.875000 0.875000 Mn
0.375000 0.125000 0.125000 Mn
0.375000 0.125000 0.625000 Mn
0.375000 0.625000 0.125000 Mn
0.375000 0.625000 0.625000 Mn
0.875000 0.125000 0.125000 Mn
0.875000 0.125000 0.625000 Mn
0.875000 0.625000 0.125000 Mn
0.875000 0.625000 0.625000 Mn
0.375000 0.125000 0.375000 Mn
0.375000 0.125000 0.875000 Mn
0.375000 0.625000 0.375000 Mn
0.375000 0.625000 0.875000 Mn
0.875000 0.125000 0.375000 Mn
0.875000 0.125000 0.875000 Mn
0.875000 0.625000 0.375000 Mn
0.875000 0.625000 0.875000 Mn
0.375000 0.375000 0.125000 Mn
0.375000 0.375000 0.625000 Mn
0.375000 0.875000 0.125000 Mn
0.375000 0.875000 0.625000 Mn
0.875000 0.375000 0.125000 Mn
0.875000 0.375000 0.625000 Mn
0.875000 0.875000 0.125000 Mn
0.875000 0.875000 0.625000 Mn
0.375000 0.375000 0.375000 Mn
0.375000 0.375000 0.875000 Mn
0.375000 0.875000 0.375000 Mn
0.375000 0.875000 0.875000 Mn
0.875000 0.375000 0.375000 Mn
0.875000 0.375000 0.875000 Mn
0.875000 0.875000 0.375000 Mn
0.875000 0.875000 0.875000 Mn
0.125000 0.125000 0.000000 O
0.125000 0.125000 0.500000 O
0.125000 0.625000 0.000000 O
0.125000 0.625000 0.500000 O
0.625000 0.125000 0.000000 O
0.625000 0.125000 0.500000 O
0.625000 0.625000 0.000000 O
0.625000 0.625000 0.500000 O
0.000000 0.125000 0.125000 O
0.000000 0.125000 0.625000 O
0.000000 0.625000 0.125000 O
0.000000 0.625000 0.625000 O
0.500000 0.125000 0.125000 O
0.500000 0.125000 0.625000 O
0.500000 0.625000 0.125000 O
0.500000 0.625000 0.625000 O
0.125000 0.000000 0.125000 O
0.125000 0.000000 0.625000 O
0.125000 0.500000 0.125000 O
0.125000 0.500000 0.625000 O
0.625000 0.000000 0.125000 O
0.625000 0.000000 0.625000 O
0.625000 0.500000 0.125000 O
0.625000 0.500000 0.625000 O
0.125000 0.125000 0.250000 O
0.125000 0.125000 0.750000 O
0.125000 0.625000 0.250000 O
0.125000 0.625000 0.750000 O
0.625000 0.125000 0.250000 O
0.625000 0.125000 0.750000 O
0.625000 0.625000 0.250000 O
0.625000 0.625000 0.750000 O
0.000000 0.125000 0.375000 O
0.000000 0.125000 0.875000 O
0.000000 0.625000 0.375000 O
0.000000 0.625000 0.875000 O
0.500000 0.125000 0.375000 O
0.500000 0.125000 0.875000 O
0.500000 0.625000 0.375000 O
0.500000 0.625000 0.875000 O
0.125000 0.000000 0.375000 O
0.125000 0.000000 0.875000 O
0.125000 0.500000 0.375000 O
0.125000 0.500000 0.875000 O
0.625000 0.000000 0.375000 O
0.625000 0.000000 0.875000 O
0.625000 0.500000 0.375000 O
0.625000 0.500000 0.875000 O
0.125000 0.375000 0.000000 O
0.125000 0.375000 0.500000 O
0.125000 0.875000 0.000000 O
0.125000 0.875000 0.500000 O
0.625000 0.375000 0.000000 O
0.625000 0.375000 0.500000 O
0.625000 0.875000 0.000000 O
0.625000 0.875000 0.500000 O
0.000000 0.375000 0.125000 O
0.000000 0.375000 0.625000 O
0.000000 0.875000 0.125000 O
0.000000 0.875000 0.625000 O
0.500000 0.375000 0.125000 O
0.500000 0.375000 0.625000 O
0.500000 0.875000 0.125000 O
0.500000 0.875000 0.625000 O
0.125000 0.250000 0.125000 O
0.125000 0.250000 0.625000 O
0.125000 0.750000 0.125000 O
0.125000 0.750000 0.625000 O
0.625000 0.250000 0.125000 O
0.625000 0.250000 0.625000 O
0.625000 0.750000 0.125000 O
0.625000 0.750000 0.625000 O
0.125000 0.375000 0.250000 O
0.125000 0.375000 0.750000 O
0.125000 0.875000 0.250000 O
0.125000 0.875000 0.750000 O
0.625000 0.375000 0.250000 O
0.625000 0.375000 0.750000 O
0.625000 0.875000 0.250000 O
0.625000 0.875000 0.750000 O
0.000000 0.375000 0.375000 O
0.000000 0.375000 0.875000 O
0.000000 0.875000 0.375000 O
0.000000 0.875000 0.875000 O
0.500000 0.375000 0.375000 O
0.500000 0.375000 0.875000 O
0.500000 0.875000 0.375000 O
0.500000 0.875000 0.875000 O
0.125000 0.250000 0.375000 O
0.125000 0.250000 0.875000 O
0.125000 0.750000 0.375000 O
0.125000 0.750000 0.875000 O
0.625000 0.250000 0.375000 O
0.625000 0.250000 0.875000 O
0.625000 0.750000 0.375000 O
0.625000 0.750000 0.875000 O
0.375000 0.125000 0.000000 O
0.375000 0.125000 0.500000 O
0.375000 0.625000 0.000000 O
0.375000 0.625000 0.500000 O
0.875000 0.125000 0.000000 O
0.875000 0.125000 0.500000 O
0.875000 0.625000 0.000000 O
0.875000 0.625000 0.500000 O
0.250000 0.125000 0.125000 O
0.250000 0.125000 0.625000 O
0.250000 0.625000 0.125000 O
0.250000 0.625000 0.625000 O
0.750000 0.125000 0.125000 O
0.750000 0.125000 0.625000 O
0.750000 0.625000 0.125000 O
0.750000 0.625000 0.625000 O
0.375000 0.000000 0.125000 O
0.375000 0.000000 0.625000 O
0.375000 0.500000 0.125000 O
0.375000 0.500000 0.625000 O
0.875000 0.000000 0.125000 O
0.875000 0.000000 0.625000 O
0.875000 0.500000 0.125000 O
0.875000 0.500000 0.625000 O
0.375000 0.125000 0.250000 O
0.375000 0.125000 0.750000 O
0.375000 0.625000 0.250000 O
0.375000 0.625000 0.750000 O
0.875000 0.125000 0.250000 O
0.875000 0.125000 0.750000 O
0.875000 0.625000 0.250000 O
0.875000 0.625000 0.750000 O
0.250000 0.125000 0.375000 O
0.250000 0.125000 0.875000 O
0.250000 0.625000 0.375000 O
0.250000 0.625000 0.875000 O
0.750000 0.125000 0.375000 O
0.750000 0.125000 0.875000 O
0.750000 0.625000 0.375000 O
0.750000 0.625000 0.875000 O
0.375000 0.000000 0.375000 O
0.375000 0.000000 0.875000 O
0.375000 0.500000 0.375000 O
0.375000 0.500000 0.875000 O
0.875000 0.000000 0.375000 O
0.875000 0.000000 0.875000 O
0.875000 0.500000 0.375000 O
0.875000 0.500000 0.875000 O
0.375000 0.375000 0.000000 O
0.375000 0.375000 0.500000 O
0.375000 0.875000 0.000000 O
0.375000 0.875000 0.500000 O
0.875000 0.375000 0.000000 O
0.875000 0.375000 0.500000 O
0.875000 0.875000 0.000000 O
0.875000 0.875000 0.500000 O
0.250000 0.375000 0.125000 O
0.250000 0.375000 0.625000 O
0.250000 0.875000 0.125000 O
0.250000 0.875000 0.625000 O
0.750000 0.375000 0.125000 O
0.750000 0.375000 0.625000 O
0.750000 0.875000 0.125000 O
0.750000 0.875000 0.625000 O
0.375000 0.250000 0.125000 O
0.375000 0.250000 0.625000 O
0.375000 0.750000 0.125000 O
0.375000 0.750000 0.625000 O
0.875000 0.250000 0.125000 O
0.875000 0.250000 0.625000 O
0.875000 0.750000 0.125000 O
0.875000 0.750000 0.625000 O
0.375000 0.375000 0.250000 O
0.375000 0.375000 0.750000 O
0.375000 0.875000 0.250000 O
0.375000 0.875000 0.750000 O
0.875000 0.375000 0.250000 O
0.875000 0.375000 0.750000 O
0.875000 0.875000 0.250000 O
0.875000 0.875000 0.750000 O
0.250000 0.375000 0.375000 O
0.250000 0.375000 0.875000 O
0.250000 0.875000 0.375000 O
0.250000 0.875000 0.875000 O
0.750000 0.375000 0.375000 O
0.750000 0.375000 0.875000 O
0.750000 0.875000 0.375000 O
0.750000 0.875000 0.875000 O
0.375000 0.250000 0.375000 O
0.375000 0.250000 0.875000 O
0.375000 0.750000 0.375000 O
0.375000 0.750000 0.875000 O
0.875000 0.250000 0.375000 O
0.875000 0.250000 0.875000 O
0.875000 0.750000 0.375000 O
0.875000 0.750000 0.875000 O
