Ga3 As5                                 
   1.00000000000000     
     5.6265999999999998    0.0000000000000000    0.0000000000000000
     0.0000000000000000    5.6265999999999998    0.0000000000000000
     0.0000000000000000    0.0000000000000000    5.6265999999999998
   Ga   As
   3   5
Direct
  0.5000000000000000  0.5000000000000000  0.0000000000000000
  0.0000000000000000  0.5000000000000000  0.5000000000000000
  0.5000000000000000  0.0000000000000000  0.5000000000000000
  0.0000000000000000  0.0000000000000000  0.0000000000000000
  0.2529545222607426  0.2529545222607426  0.2529545222607426
  0.7470454777392574  0.7470454777392574  0.2529545222607426
  0.2529545222607426  0.7470454777392574  0.7470454777392574
  0.7470454777392574  0.2529545222607426  0.7470454777392574
 
  0.00000000E+00  0.00000000E+00  0.00000000E+00
  0.00000000E+00  0.00000000E+00  0.00000000E+00
  0.00000000E+00  0.00000000E+00  0.00000000E+00
  0.00000000E+00  0.00000000E+00  0.00000000E+00
  0.00000000E+00  0.00000000E+00  0.00000000E+00
  0.00000000E+00  0.00000000E+00  0.00000000E+00
  0.00000000E+00  0.00000000E+00  0.00000000E+00
  0.00000000E+00  0.00000000E+00  0.00000000E+00
