Mg1 Al32                                
   1.00000000000000     
     8.0870400000000000    0.0000000000000000    0.0000000000000000
     0.0000000000000000    8.0870400000000000    0.0000000000000000
     0.0000000000000000    0.0000000000000000    8.0870400000000000
   Al   Mg
  32   1
Direct
  0.0000000000000000  0.0000000000000000  0.0057389999999984
  0.2442610000000016  0.0000000000000000  0.2500000000000000
  0.2550969999999992  0.2550969999999992  0.9949030000000008
  0.0000000000000000  0.2442610000000016  0.2500000000000000
  0.5000000000000000  0.0000000000000000  0.0169879999999978
  0.7557389999999984  0.0000000000000000  0.2500000000000000
  0.7449030000000008  0.2550969999999992  0.9949030000000008
  0.5000000000000000  0.2330120000000022  0.2500000000000000
  0.0000000000000000  0.5000000000000000  0.0169879999999978
  0.2330120000000022  0.5000000000000000  0.2500000000000000
  0.2550969999999992  0.7449030000000008  0.9949030000000008
  0.0000000000000000  0.7557389999999984  0.2500000000000000
  0.5000000000000000  0.5000000000000000  0.0675030000000021
  0.7669879999999978  0.5000000000000000  0.2500000000000000
  0.7449030000000008  0.7449030000000008  0.9949030000000008
  0.5000000000000000  0.7669879999999978  0.2500000000000000
  0.0000000000000000  0.0000000000000000  0.4942610000000016
  0.2330120000000022  0.0000000000000000  0.7500000000000000
  0.2550969999999992  0.2550969999999992  0.5050969999999992
  0.0000000000000000  0.2330120000000022  0.7500000000000000
  0.5000000000000000  0.0000000000000000  0.4830120000000022
  0.7669879999999978  0.0000000000000000  0.7500000000000000
  0.7449030000000008  0.2550969999999992  0.5050969999999992
  0.5000000000000000  0.1824969999999979  0.7500000000000000
  0.0000000000000000  0.5000000000000000  0.4830120000000022
  0.1824969999999979  0.5000000000000000  0.7500000000000000
  0.2550969999999992  0.7449030000000008  0.5050969999999992
  0.0000000000000000  0.7669879999999978  0.7500000000000000
  0.5000000000000000  0.5000000000000000  0.4324969999999979
  0.8175030000000021  0.5000000000000000  0.7500000000000000
  0.7449030000000008  0.7449030000000008  0.5050969999999992
  0.5000000000000000  0.8175030000000021  0.7500000000000000
  0.5000000000000000  0.5000000000000000  0.7500000000000000
 
  0.00000000E+00  0.00000000E+00  0.00000000E+00
  0.00000000E+00  0.00000000E+00  0.00000000E+00
  0.00000000E+00  0.00000000E+00  0.00000000E+00
  0.00000000E+00  0.00000000E+00  0.00000000E+00
  0.00000000E+00  0.00000000E+00  0.00000000E+00
  0.00000000E+00  0.00000000E+00  0.00000000E+00
  0.00000000E+00  0.00000000E+00  0.00000000E+00
  0.00000000E+00  0.00000000E+00  0.00000000E+00
  0.00000000E+00  0.00000000E+00  0.00000000E+00
  0.00000000E+00  0.00000000E+00  0.00000000E+00
  0.00000000E+00  0.00000000E+00  0.00000000E+00
  0.00000000E+00  0.00000000E+00  0.00000000E+00
  0.00000000E+00  0.00000000E+00  0.00000000E+00
  0.00000000E+00  0.00000000E+00  0.00000000E+00
  0.00000000E+00  0.00000000E+00  0.00000000E+00
  0.00000000E+00  0.00000000E+00  0.00000000E+00
  0.00000000E+00  0.00000000E+00  0.00000000E+00
  0.00000000E+00  0.00000000E+00  0.00000000E+00
  0.00000000E+00  0.00000000E+00  0.00000000E+00
  0.00000000E+00  0.00000000E+00  0.00000000E+00
  0.00000000E+00  0.00000000E+00  0.00000000E+00
  0.00000000E+00  0.00000000E+00  0.00000000E+00
  0.00000000E+00  0.00000000E+00  0.00000000E+00
  0.00000000E+00  0.00000000E+00  0.00000000E+00
  0.00000000E+00  0.00000000E+00  0.00000000E+00
  0.00000000E+00  0.00000000E+00  0.00000000E+00
  0.00000000E+00  0.00000000E+00  0.00000000E+00
  0.00000000E+00  0.00000000E+00  0.00000000E+00
  0.00000000E+00  0.00000000E+00  0.00000000E+00
  0.00000000E+00  0.00000000E+00  0.00000000E+00
  0.00000000E+00  0.00000000E+00  0.00000000E+00
  0.00000000E+00  0.00000000E+00  0.00000000E+00
  0.00000000E+00  0.00000000E+00  0.00000000E+00
