KPOINTS File, automatically generated by KPPRA - aflow with Kpoints=1000  [KPPRA=640]
0
G
1 1 1
0 0 0
