POSCAR_02:Al                                      
1.0000000000
10.9063935957 0.0000000000 0.0000000000
0.0000000000 10.9063935957 0.0000000000
0.0000000000 0.0000000000 10.9063935957
   Al   Mg
1 106 
D
0.1610006072 -0.0000000000 0.1610006072
-0.0023471299 -0.0000000000 0.3308205481
-0.0017958772 -0.0000000000 0.6662888191
-0.0020236272 0.3327465673 -0.0020236272
-0.0020485252 0.3336564732 0.3321320075
-0.0018569337 0.3331179485 0.6654312486
-0.0020236272 0.6672534327 -0.0020236272
-0.0020485252 0.6663435268 0.3321320075
-0.0018569337 0.6668820515 0.6654312486
0.3308205481 -0.0000000000 -0.0023471299
0.3316407206 -0.0000000000 0.3316407206
0.3315922237 -0.0000000000 0.6654617480
0.3321320075 0.3336564732 -0.0020485252
0.3318102244 0.3333881963 0.3318102244
0.3316132786 0.3332144338 0.6654216913
0.3321320075 0.6663435268 -0.0020485252
0.3318102244 0.6666118037 0.3318102244
0.3316132786 0.6667855662 0.6654216913
0.6662888191 -0.0000000000 -0.0017958772
0.6654617480 -0.0000000000 0.3315922237
0.6656299040 -0.0000000000 0.6656299040
0.6654312486 0.3331179485 -0.0018569337
0.6654216913 0.3332144338 0.3316132786
0.6655286603 0.3331064894 0.6655286603
0.6654312486 0.6668820515 -0.0018569337
0.6654216913 0.6667855662 0.3316132786
0.6655286603 0.6668935106 0.6655286603
-0.0024939062 0.1665093733 0.1633858039
-0.0019742663 0.1664451401 0.4986723039
-0.0018186762 0.1650254991 0.8335315280
-0.0019744668 0.5000000000 0.1646326439
-0.0018996415 0.5000000000 0.4989765534
-0.0018955209 0.5000000000 0.8318663830
-0.0024939062 0.8334906267 0.1633858039
-0.0019742663 0.8335548599 0.4986723039
-0.0018186762 0.8349745009 0.8335315280
0.3318945419 0.1671003856 0.1645711948
0.3317121115 0.1666714475 0.4987907731
0.3313664230 0.1665332527 0.8319217103
0.3317401439 0.5000000000 0.1647618087
0.3317059601 0.5000000000 0.4987608632
0.3315596291 0.5000000000 0.8316567962
0.3318945419 0.8328996144 0.1645711948
0.3317121115 0.8333285525 0.4987907731
0.3313664230 0.8334667473 0.8319217103
0.6660079314 0.1662375982 0.1644990726
0.6655396703 0.1664867290 0.4987587249
0.6660121954 0.1661994790 0.8321893360
0.6655056426 0.5000000000 0.1646927727
0.6653837283 0.5000000000 0.4986868581
0.6656607869 0.5000000000 0.8318667814
0.6660079314 0.8337624018 0.1644990726
0.6655396703 0.8335132710 0.4987587249
0.6660121954 0.8338005210 0.8321893360
0.1645523481 -0.0000000000 0.4988061033
0.1628836548 -0.0000000000 0.8337768693
0.1645758674 0.3334257595 0.1645758674
0.1647530506 0.3333447290 0.4989722835
0.1645252945 0.3330665354 0.8317981591
0.1645758674 0.6665742405 0.1645758674
0.1647530506 0.6666552710 0.4989722835
0.1645252945 0.6669334646 0.8317981591
0.4988061033 -0.0000000000 0.1645523481
0.4988547896 -0.0000000000 0.4988547896
0.4987524239 -0.0000000000 0.8318837985
0.4989722835 0.3333447290 0.1647530506
0.4987622805 0.3332839391 0.4987622805
0.4988361724 0.3331767295 0.8317075155
0.4989722835 0.6666552710 0.1647530506
0.4987622805 0.6667160609 0.4987622805
0.4988361724 0.6668232705 0.8317075155
0.8337768693 -0.0000000000 0.1628836548
0.8318837985 -0.0000000000 0.4987524239
0.8337831835 -0.0000000000 0.8337831835
0.8317981591 0.3330665354 0.1645252945
0.8317075155 0.3331767295 0.4988361724
0.8321021817 0.3326629087 0.8321021817
0.8317981591 0.6669334646 0.1645252945
0.8317075155 0.6668232705 0.4988361724
0.8321021817 0.6673370913 0.8321021817
0.1633858039 0.1665093733 -0.0024939062
0.1645711948 0.1671003856 0.3318945419
0.1644990726 0.1662375982 0.6660079314
0.1646326439 0.5000000000 -0.0019744668
0.1647618087 0.5000000000 0.3317401439
0.1646927727 0.5000000000 0.6655056426
0.1633858039 0.8334906267 -0.0024939062
0.1645711948 0.8328996144 0.3318945419
0.1644990726 0.8337624018 0.6660079314
0.4986723039 0.1664451401 -0.0019742663
0.4987907731 0.1666714475 0.3317121115
0.4987587249 0.1664867290 0.6655396703
0.4989765534 0.5000000000 -0.0018996415
0.4987608632 0.5000000000 0.3317059601
0.4986868581 0.5000000000 0.6653837283
0.4986723039 0.8335548599 -0.0019742663
0.4987907731 0.8333285525 0.3317121115
0.4987587249 0.8335132710 0.6655396703
0.8335315280 0.1650254991 -0.0018186762
0.8319217103 0.1665332527 0.3313664230
0.8321893360 0.1661994790 0.6660121954
0.8318663830 0.5000000000 -0.0018955209
0.8316567962 0.5000000000 0.3315596291
0.8318667814 0.5000000000 0.6656607869
0.8335315280 0.8349745009 -0.0018186762
0.8319217103 0.8334667473 0.3313664230
0.8321893360 0.8338005210 0.6660121954
