Al4                                     
   1.00000000000000     
     4.0870780000000000    0.0000000000000000    0.0000000000000000
     0.0000000000000000    4.0870780000000000    0.0000000000000000
     0.0000000000000000    0.0000000000000000    4.0870780000000000
   Al
   4
Selective dynamics
Direct
  0.0000000000000000  0.0000000000000000  0.0000000000000000   F   F   F
  0.4975532642146786  0.5000000000000000  0.0000000000000000   T   F   F
  0.0000000000000000  0.5000000000000000  0.5000000000000000   F   F   F
  0.5000000000000000  0.0000000000000000  0.5000000000000000   F   F   F
 
  0.00000000E+00  0.00000000E+00  0.00000000E+00
  0.00000000E+00  0.00000000E+00  0.00000000E+00
  0.00000000E+00  0.00000000E+00  0.00000000E+00
  0.00000000E+00  0.00000000E+00  0.00000000E+00
