POSCAR_00:endpoint 1                              
1.0000000000
8.1812518934 -0.0001622712 -0.1119711403
-0.0001406435 8.1352084486 0.0001473972
-0.1119715261 0.0001839519 8.1809562684
8 8 23 
D
0.0275931510 0.0056821885 0.9876896834
0.0201459707 0.9969862098 0.4743638407
0.9771706983 0.5031514516 0.0200557521
0.9828096172 0.5004824856 0.5354861784
0.5173492878 0.0017821482 0.9747932970
0.5317338108 0.9970099621 0.4871637921
0.4824930560 0.5029816440 0.0391112896
0.4676018954 0.5007798021 0.5224905705
0.2527556272 0.2498484033 0.2561659974
0.2516306564 0.2494871321 0.7550388433
0.2503900930 0.7505446528 0.2544682228
0.2498780792 0.7507147674 0.7560040463
0.7561436002 0.2478624629 0.2581663753
0.7517499093 0.2459313218 0.7506286517
0.7521443288 0.7496062577 0.2544698842
0.7485630199 0.7473859648 0.7550320109
0.2902441219 0.1906063093 0.0057472577
0.0006032599 0.1935994623 0.2109758635
0.2846514431 0.0001297673 0.3314775896
0.2049976067 0.3065925238 0.5065755383
0.9986638050 0.3078717615 0.8011316915
0.1757169890 0.9999435281 0.7213766879
0.2935755678 0.8057019505 0.0052392329
0.9999544430 0.8105070982 0.2104895014
0.2160097727 0.5002756992 0.1919951809
0.2019176486 0.6940463426 0.5054261894
0.9980740542 0.6909825737 0.7940005105
0.3214401033 0.4998518821 0.7919186022
0.5004195965 0.3116113668 0.2910737912
0.6774800720 0.0006374326 0.2191973493
0.7933082272 0.1978030878 0.5034748325
0.4998164797 0.1924344321 0.7114984524
0.7817431070 0.9997442370 0.8243277865
0.7014569313 0.6913473805 0.0033717586
0.5000761087 0.6955044509 0.3025892989
0.8221794801 0.5001614466 0.2821967353
0.7947332213 0.8078877478 0.5034050268
0.4983606791 0.8044808458 0.7046811908
0.7135009462 0.4998998844 0.6813511244
