Sc Ti W
1.0
12.000000 11.000000 10.000000
9.000000 8.000000 7.000000
6.000000 5.000000 4.000000
Sc Ti W
4 4 2
direct
0.100000 0.200000 0.300000 Sc
0.200000 0.300000 0.400000 Sc
0.300000 0.400000 0.500000 Sc
0.400000 0.500000 0.600000 Sc
0.500000 0.600000 0.700000 Ti
0.400000 0.500000 0.600000 Ti
0.300000 0.400000 0.500000 Ti
0.200000 0.300000 0.400000 Ti
0.100000 0.200000 0.300000 W
0.000000 0.100000 0.200000 W
