Cr4 Fe4 Ni2
1.0
4.000000 0.000000 0.100000
0.100000 4.000000 0.000000
0.000000 0.000000 4.000000
Cr Fe Ni
4 4 2
direct
0.120000 0.230000 0.340000 Cr
0.220000 0.330000 0.440000 Cr
0.320000 0.430000 0.540000 Cr
0.420000 0.530000 0.640000 Cr
0.520000 0.630000 0.740000 Fe
0.420000 0.530000 0.640000 Fe
0.320000 0.430000 0.540000 Fe
0.220000 0.330000 0.440000 Fe
0.120000 0.230000 0.340000 Ni
0.020000 0.130000 0.240000 Ni
