POSCAR_02:endpoint 1                              
1.0000000000
8.1812518934 -0.0001622712 -0.1119711403
-0.0001406435 8.1352084486 0.0001473972
-0.1119715261 0.0001839519 8.1809562684
8 8 23 
D
0.0251656258 -0.0029699229 0.9920125516
0.0123050225 0.9972267303 0.4808923947
0.9636176983 0.5005756534 0.0293303973
0.9767883835 0.5004875583 0.5442623794
0.5116527656 0.0054633360 0.9843751971
0.5244466684 1.0018723957 0.4948025631
0.4792919270 0.5033108836 0.0353760343
0.4604931574 0.5027689339 0.5296652652
0.2411410016 0.2478791291 0.2560254839
0.2432702774 0.2499795022 0.7595237709
0.2446371993 0.7495508444 0.2602122369
0.2448572540 0.7502864501 0.7617785905
0.7486342818 0.2457150219 0.2602320627
0.7443492147 0.2493818111 0.7606424081
0.7443877915 0.7475770294 0.2636171121
0.7433949410 0.7507799479 0.7622276836
0.2885644506 0.1935680355 0.0117261735
-0.0042205059 0.1979168100 0.2187748518
0.2798164522 0.0004372451 0.3347969686
0.2078477583 0.3110636689 0.5118641460
0.9929418029 0.3064150967 0.8075101469
0.1684304156 1.0000254671 0.7278033481
0.2889388687 0.8100866522 0.0123436935
0.9957871619 0.8077611231 0.2174044430
0.2167128956 0.5000099082 0.1902822387
0.1968846506 0.6950595990 0.5121525570
0.9939861628 0.6939569808 0.8099821699
0.3077514460 0.5001736470 0.7961660936
0.6980294086 0.3080316610 0.0133496457
0.6744617918 -0.0001507352 0.2301993775
0.7880990312 0.1928422202 0.5122040122
0.4937459664 0.1908430812 0.7216509327
0.7784477782 1.0001536394 0.8360843147
0.7050068057 0.6916679195 0.0138810317
0.4957973246 0.6909590425 0.3105187228
0.8172492513 0.4999863771 0.2984806608
0.7942488471 0.8052823409 0.5135759903
0.4941400598 0.8058372020 0.7185167398
0.7079754317 0.5000457789 0.6904052382
