ENCUT = 600.0
IBRION = 2
MAGMOM = 4*5 4*1 
NELECT = 31.0
