Mg4 O4
1.0
4.300000 0.000000 0.000000
0.000000 4.300000 0.000000
0.000000 0.000000 4.300000
Mg O
4 4
direct
0.000000 0.000000 0.000000 Mg
0.500000 0.500000 0.000000 Mg
0.000000 0.500000 0.500000 Mg
0.500000 0.000000 0.500000 Mg
0.500000 0.000000 0.000000 O
0.000000 0.500000 0.000000 O
0.000000 0.000000 0.500000 O
0.500000 0.500000 0.500000 O
