Al31                                    
   1.00000000000000     
     8.0870519999999999    0.0000000000000000    0.0000000000000000
     0.0000000000000000    8.0870519999999999    0.0000000000000000
     0.0000000000000000    0.0000000000000000    8.0870519999999999
   Al
  31
Direct
  0.9996905129340424  0.0000000000000000  0.9996905129340424
  0.2484660963575981  0.0000000000000000  0.2484660963575981
  0.2481206115895202  0.2533684651038152  0.0023803487229888
  0.0023803487229888  0.2533684651038152  0.2481206115895202
  0.5005353478924257  0.0000000000000000  0.9930732973607191
  0.7569257028825551  0.0000000000000000  0.2494656518643000
  0.7513359478241983  0.2508103730472109 -0.0013369475809241
  0.5065630376827689  0.2369716824105442  0.2434349637367528
  0.0009170509083500  0.5000000000000000  0.0009170509083500
  0.2481206115895202  0.7466315348961849  0.0023803487229888
  0.0023803487229888  0.7466315348961849  0.2481206115895202
  0.4948290549080070  0.5000000000000000  0.0054208620543848
  0.7445811365260938  0.5000000000000000  0.2551689465115218
  0.7513359478241983  0.7491886269527914 -0.0013369475809241
  0.5065630376827689  0.7630293175894535  0.2434349637367528
  0.9930732973607191  0.0000000000000000  0.5005353478924257
  0.2494656518643000  0.0000000000000000  0.7569257028825551
  0.2434349637367528  0.2369716824105442  0.5065630376827689
 -0.0013369475809241  0.2508103730472109  0.7513359478241983
  0.5015349033991207  0.0000000000000000  0.5015349033991207
  0.7503084873092388  0.0000000000000000  0.7503084873092388
  0.7476216498574896  0.2533664667666155  0.5018803881671985
  0.5018803881671985  0.2533664667666155  0.7476216498574896
  0.0054208620543848  0.5000000000000000  0.4948290549080070
  0.2551689465115218  0.5000000000000000  0.7445811365260938
  0.2434349637367528  0.7630293175894535  0.5065630376827689
 -0.0013369475809241  0.7491886269527914  0.7513359478241983
  0.7490849476721285  0.5000000000000000  0.7490849476721285
  0.7476216498574896  0.7466335332333847  0.5018803881671985
  0.5018803881671985  0.7466335332333847  0.7476216498574896
  0.3749999471646850  0.5000000000000000  0.3749999471646850
 
  0.00000000E+00  0.00000000E+00  0.00000000E+00
  0.00000000E+00  0.00000000E+00  0.00000000E+00
  0.00000000E+00  0.00000000E+00  0.00000000E+00
  0.00000000E+00  0.00000000E+00  0.00000000E+00
  0.00000000E+00  0.00000000E+00  0.00000000E+00
  0.00000000E+00  0.00000000E+00  0.00000000E+00
  0.00000000E+00  0.00000000E+00  0.00000000E+00
  0.00000000E+00  0.00000000E+00  0.00000000E+00
  0.00000000E+00  0.00000000E+00  0.00000000E+00
  0.00000000E+00  0.00000000E+00  0.00000000E+00
  0.00000000E+00  0.00000000E+00  0.00000000E+00
  0.00000000E+00  0.00000000E+00  0.00000000E+00
  0.00000000E+00  0.00000000E+00  0.00000000E+00
  0.00000000E+00  0.00000000E+00  0.00000000E+00
  0.00000000E+00  0.00000000E+00  0.00000000E+00
  0.00000000E+00  0.00000000E+00  0.00000000E+00
  0.00000000E+00  0.00000000E+00  0.00000000E+00
  0.00000000E+00  0.00000000E+00  0.00000000E+00
  0.00000000E+00  0.00000000E+00  0.00000000E+00
  0.00000000E+00  0.00000000E+00  0.00000000E+00
  0.00000000E+00  0.00000000E+00  0.00000000E+00
  0.00000000E+00  0.00000000E+00  0.00000000E+00
  0.00000000E+00  0.00000000E+00  0.00000000E+00
  0.00000000E+00  0.00000000E+00  0.00000000E+00
  0.00000000E+00  0.00000000E+00  0.00000000E+00
  0.00000000E+00  0.00000000E+00  0.00000000E+00
  0.00000000E+00  0.00000000E+00  0.00000000E+00
  0.00000000E+00  0.00000000E+00  0.00000000E+00
  0.00000000E+00  0.00000000E+00  0.00000000E+00
  0.00000000E+00  0.00000000E+00  0.00000000E+00
  0.00000000E+00  0.00000000E+00  0.00000000E+00
