Al31
1.0
8.087052 0.000000 0.000000
0.000000 8.087052 0.000000
0.000000 0.000000 8.087052
Al
31
direct
0.993383 0.000000 0.993383 Al
0.249621 0.000000 0.249621 Al
0.249150 0.249186 0.000338 Al
0.000338 0.249186 0.249150 Al
0.504947 0.000000 0.997288 Al
0.752711 0.000000 0.245054 Al
0.748743 0.241517 1.001256 Al
0.508631 0.239211 0.241367 Al
0.002412 0.500000 0.002412 Al
0.249150 0.750814 0.000338 Al
0.000338 0.750814 0.249150 Al
0.498437 0.500000 0.009137 Al
0.740865 0.500000 0.251561 Al
0.748743 0.758482 1.001256 Al
0.508631 0.760790 0.241367 Al
0.997288 0.000000 0.504947 Al
0.245054 0.000000 0.752711 Al
0.241367 0.239211 0.508631 Al
1.001256 0.241517 0.748743 Al
0.500380 0.000000 0.500380 Al
0.756616 0.000000 0.756616 Al
0.749664 0.249184 0.500851 Al
0.500851 0.249184 0.749664 Al
0.009137 0.500000 0.498437 Al
0.251561 0.500000 0.740865 Al
0.241367 0.760790 0.508631 Al
1.001256 0.758482 0.748743 Al
0.747590 0.500000 0.747590 Al
0.749664 0.750816 0.500851 Al
0.500851 0.750816 0.749664 Al
0.375000 0.500000 0.375000 Al

0.000000 0.000000 0.000000
0.000000 0.000000 0.000000
0.000000 0.000000 0.000000
0.000000 0.000000 0.000000
0.000000 0.000000 0.000000
0.000000 0.000000 0.000000
0.000000 0.000000 0.000000
0.000000 0.000000 0.000000
0.000000 0.000000 0.000000
0.000000 0.000000 0.000000
0.000000 0.000000 0.000000
0.000000 0.000000 0.000000
0.000000 0.000000 0.000000
0.000000 0.000000 0.000000
0.000000 0.000000 0.000000
0.000000 0.000000 0.000000
0.000000 0.000000 0.000000
0.000000 0.000000 0.000000
0.000000 0.000000 0.000000
0.000000 0.000000 0.000000
0.000000 0.000000 0.000000
0.000000 0.000000 0.000000
0.000000 0.000000 0.000000
0.000000 0.000000 0.000000
0.000000 0.000000 0.000000
0.000000 0.000000 0.000000
0.000000 0.000000 0.000000
0.000000 0.000000 0.000000
0.000000 0.000000 0.000000
0.000000 0.000000 0.000000
0.000000 0.000000 0.000000
