Mg1 Al32
1.0
8.087040 0.000000 0.000000
0.000000 8.087040 0.000000
0.000000 0.000000 8.087040
Al Mg
32 1
direct
0.001355 0.001355 0.002790 Al
0.249576 0.000994 0.251011 Al
0.252285 0.252285 -0.000281 Al
0.000994 0.249576 0.251011 Al
0.497552 0.994038 0.998285 Al
0.744215 0.013666 0.246189 Al
0.741506 0.247463 0.012391 Al
0.492808 0.246540 0.250787 Al
0.994038 0.497552 0.998285 Al
0.246540 0.492808 0.250787 Al
0.247463 0.741506 0.012391 Al
0.013666 0.744215 0.246189 Al
0.504740 0.504740 1.006733 Al
0.752180 0.489394 0.244143 Al
0.754922 0.754922 0.036151 Al
0.489394 0.752180 0.244143 Al
0.994038 0.994038 0.496117 Al
0.241942 0.013666 0.742780 Al
0.252061 0.252061 0.494082 Al
0.013666 0.241942 0.742780 Al
0.504740 0.989858 0.500493 Al
0.760443 0.037425 0.756196 Al
0.746659 0.245418 0.490668 Al
0.489394 0.227267 0.747933 Al
0.989858 0.504740 0.500493 Al
0.227267 0.489394 0.747933 Al
0.245418 0.746659 0.490668 Al
0.037425 0.760443 0.756196 Al
0.507024 0.507024 0.490149 Al
0.769739 0.435678 0.752864 Al
0.751589 0.751589 0.436952 Al
0.435678 0.769739 0.752864 Al
0.669826 0.669826 0.732326 Mg

0.000000 0.000000 0.000000
0.000000 0.000000 0.000000
0.000000 0.000000 0.000000
0.000000 0.000000 0.000000
0.000000 0.000000 0.000000
0.000000 0.000000 0.000000
0.000000 0.000000 0.000000
0.000000 0.000000 0.000000
0.000000 0.000000 0.000000
0.000000 0.000000 0.000000
0.000000 0.000000 0.000000
0.000000 0.000000 0.000000
0.000000 0.000000 0.000000
0.000000 0.000000 0.000000
0.000000 0.000000 0.000000
0.000000 0.000000 0.000000
0.000000 0.000000 0.000000
0.000000 0.000000 0.000000
0.000000 0.000000 0.000000
0.000000 0.000000 0.000000
0.000000 0.000000 0.000000
0.000000 0.000000 0.000000
0.000000 0.000000 0.000000
0.000000 0.000000 0.000000
0.000000 0.000000 0.000000
0.000000 0.000000 0.000000
0.000000 0.000000 0.000000
0.000000 0.000000 0.000000
0.000000 0.000000 0.000000
0.000000 0.000000 0.000000
0.000000 0.000000 0.000000
0.000000 0.000000 0.000000
0.000000 0.000000 0.000000
