Mg1 Al30                                
   1.00000000000000     
     8.0870519999999999    0.0000000000000000    0.0000000000000000
     0.0000000000000000    8.0870519999999999    0.0000000000000000
     0.0000000000000000    0.0000000000000000    8.0870519999999999
   Al   Mg
  30   1
Direct
  0.9995621550874526  0.0000000000000000  0.9995621550874526
  0.2482498705106609  0.0000000000000000  0.2482498705106609
  0.2500232344550656  0.2496087285769694  0.0003304477045363
  0.0003304477045363  0.2496087285769694  0.2500232344550656
  0.4996407007465247  0.0000000000000000  0.9961627988924824
  0.7533634051493240  0.0000000000000000  0.2498829039393962
  0.7520653794802356  0.2490541198949807  0.9990273517264330
  0.5045610416336656  0.2474823373763826  0.2497793622702739
  0.9990658170631951  0.5000000000000000  0.9990658170631951
  0.2500232344550656  0.7503912714230305  0.0003304477045363
  0.0003304477045363  0.7503912714230305  0.2500232344550656
  0.5024913897781471  0.5000000000000000  0.9974139541074332
  0.7468738826237432  0.5000000000000000  0.2512394425520510
  0.7520653794802356  0.7509458801050194  0.9990273517264330
  0.5045610416336656  0.7525176626236175  0.2497793622702739
  0.9961627988924824  0.0000000000000000  0.4996407007465247
  0.2498829039393962  0.0000000000000000  0.7533634051493240
  0.2497793622702739  0.2474823373763826  0.5045610416336656
  0.9990273517264330  0.2490541198949807  0.7520653794802356
  0.5007863353539769  0.0000000000000000  0.5007863353539769
  0.7510469127396369  0.0000000000000000  0.7510469127396369
  0.7445940027008310  0.2543996410263053  0.4984976816772656
  0.4984976816772656  0.2543996410263053  0.7445940027008310
  0.9974139541074332  0.5000000000000000  0.5024913897781471
  0.2512394425520510  0.5000000000000000  0.7468738826237432
  0.2497793622702739  0.7525176626236175  0.5045610416336656
  0.9990273517264330  0.7509458801050194  0.7520653794802356
  0.7456763600803652  0.5000000000000000  0.7456763600803652
  0.7445940027008310  0.7456003589736946  0.4984976816772656
  0.4984976816772656  0.7456003589736946  0.7445940027008310
  0.2607880680789952  0.5000000000000000  0.2607880680789952
 
  0.00000000E+00  0.00000000E+00  0.00000000E+00
  0.00000000E+00  0.00000000E+00  0.00000000E+00
  0.00000000E+00  0.00000000E+00  0.00000000E+00
  0.00000000E+00  0.00000000E+00  0.00000000E+00
  0.00000000E+00  0.00000000E+00  0.00000000E+00
  0.00000000E+00  0.00000000E+00  0.00000000E+00
  0.00000000E+00  0.00000000E+00  0.00000000E+00
  0.00000000E+00  0.00000000E+00  0.00000000E+00
  0.00000000E+00  0.00000000E+00  0.00000000E+00
  0.00000000E+00  0.00000000E+00  0.00000000E+00
  0.00000000E+00  0.00000000E+00  0.00000000E+00
  0.00000000E+00  0.00000000E+00  0.00000000E+00
  0.00000000E+00  0.00000000E+00  0.00000000E+00
  0.00000000E+00  0.00000000E+00  0.00000000E+00
  0.00000000E+00  0.00000000E+00  0.00000000E+00
  0.00000000E+00  0.00000000E+00  0.00000000E+00
  0.00000000E+00  0.00000000E+00  0.00000000E+00
  0.00000000E+00  0.00000000E+00  0.00000000E+00
  0.00000000E+00  0.00000000E+00  0.00000000E+00
  0.00000000E+00  0.00000000E+00  0.00000000E+00
  0.00000000E+00  0.00000000E+00  0.00000000E+00
  0.00000000E+00  0.00000000E+00  0.00000000E+00
  0.00000000E+00  0.00000000E+00  0.00000000E+00
  0.00000000E+00  0.00000000E+00  0.00000000E+00
  0.00000000E+00  0.00000000E+00  0.00000000E+00
  0.00000000E+00  0.00000000E+00  0.00000000E+00
  0.00000000E+00  0.00000000E+00  0.00000000E+00
  0.00000000E+00  0.00000000E+00  0.00000000E+00
  0.00000000E+00  0.00000000E+00  0.00000000E+00
  0.00000000E+00  0.00000000E+00  0.00000000E+00
  0.00000000E+00  0.00000000E+00  0.00000000E+00
