Mg1 Al30
1.0
8.087052 0.000000 0.000000
0.000000 8.087052 0.000000
0.000000 0.000000 8.087052
Al Mg
30 1
direct
-0.005505 0.000000 -0.005505 Al
0.250367 0.000000 0.250367 Al
0.248226 0.239809 -0.009067 Al
-0.009067 0.239809 0.248226 Al
0.503846 0.000000 -0.005198 Al
0.754365 0.000000 0.246702 Al
0.752722 0.243507 -0.004665 Al
0.511166 0.228675 0.241821 Al
-0.010003 0.500000 -0.010003 Al
0.248226 0.760191 -0.009067 Al
-0.009067 0.760191 0.248226 Al
0.513943 0.500000 -0.011405 Al
0.756247 0.500000 0.239211 Al
0.752722 0.756493 -0.004665 Al
0.511166 0.771325 0.241821 Al
-0.005198 0.000000 0.503846 Al
0.246702 0.000000 0.754365 Al
0.241821 0.228675 0.511166 Al
-0.004665 0.243507 0.752722 Al
0.501834 0.000000 0.501834 Al
0.752164 0.000000 0.752164 Al
0.755250 0.242463 0.505245 Al
0.505245 0.242463 0.755250 Al
-0.011405 0.500000 0.513943 Al
0.239211 0.500000 0.756247 Al
0.241821 0.771325 0.511166 Al
-0.004665 0.756493 0.752722 Al
0.756186 0.500000 0.756186 Al
0.755250 0.757537 0.505245 Al
0.505245 0.757537 0.755250 Al
0.255851 0.500000 0.255851 Mg

0.000000 0.000000 0.000000
0.000000 0.000000 0.000000
0.000000 0.000000 0.000000
0.000000 0.000000 0.000000
0.000000 0.000000 0.000000
0.000000 0.000000 0.000000
0.000000 0.000000 0.000000
0.000000 0.000000 0.000000
0.000000 0.000000 0.000000
0.000000 0.000000 0.000000
0.000000 0.000000 0.000000
0.000000 0.000000 0.000000
0.000000 0.000000 0.000000
0.000000 0.000000 0.000000
0.000000 0.000000 0.000000
0.000000 0.000000 0.000000
0.000000 0.000000 0.000000
0.000000 0.000000 0.000000
0.000000 0.000000 0.000000
0.000000 0.000000 0.000000
0.000000 0.000000 0.000000
0.000000 0.000000 0.000000
0.000000 0.000000 0.000000
0.000000 0.000000 0.000000
0.000000 0.000000 0.000000
0.000000 0.000000 0.000000
0.000000 0.000000 0.000000
0.000000 0.000000 0.000000
0.000000 0.000000 0.000000
0.000000 0.000000 0.000000
0.000000 0.000000 0.000000
