Mg1 Al30                                
   1.00000000000000     
     8.0870540000000002    0.0000000000000000    0.0000000000000000
     0.0000000000000000    8.0870540000000002    0.0000000000000000
     0.0000000000000000    0.0000000000000000    8.0870540000000002
   Mg   Al
   1  30
Direct
  0.2607957672971503  0.5000000000000000  0.2607957672971503
 -0.0004157317929204  0.0000000000000000 -0.0004157317929204
  0.2482461775933071  0.0000000000000000  0.2482461775933071
  0.2500370767221568  0.2496551162487476  0.0003775034662691
  0.0003775034662691  0.2496551162487476  0.2500370767221568
  0.4996330014669126  0.0000000000000000  0.9961659313585799
  0.7533647914092421  0.0000000000000000  0.2498931561386371
  0.7520637296402065  0.2490828913441789  0.9990486149406931
  0.5045291305710716  0.2475513889834235  0.2498082406910060
  0.9991031651492456  0.5000000000000000  0.9991031651492456
  0.2500370767221568  0.7503448837512524  0.0003775034662691
  0.0003775034662691  0.7503448837512524  0.2500370767221568
  0.5024410701824360  0.5000000000000000  0.9974362359256742
  0.7468519068345417  0.5000000000000000  0.2512752176124385
  0.7520637296402065  0.7509171086558212  0.9990486149406931
  0.5045291305710716  0.7524486110165765  0.2498082406910060
  0.9961659313585799  0.0000000000000000  0.4996330014669126
  0.2498931561386371  0.0000000000000000  0.7533647914092421
  0.2498082406910060  0.2475513889834235  0.5045291305710716
  0.9990486149406931  0.2490828913441789  0.7520637296402065
  0.5007840748353084  0.0000000000000000  0.5007840748353084
  0.7510480189772740  0.0000000000000000  0.7510480189772740
  0.7445500898356771  0.2544476848269746  0.4984655334036569
  0.4984655334036569  0.2544476848269746  0.7445500898356771
  0.9974362359256742  0.5000000000000000  0.5024410701824360
  0.2512752176124385  0.5000000000000000  0.7468519068345417
  0.2498082406910060  0.7524486110165765  0.5045291305710716
  0.9990486149406931  0.7509171086558212  0.7520637296402065
  0.7456183784706887  0.5000000000000000  0.7456183784706887
  0.7445500898356771  0.7455523151730253  0.4984655334036569
  0.4984655334036569  0.7455523151730253  0.7445500898356771
 
  0.00000000E+00  0.00000000E+00  0.00000000E+00
  0.00000000E+00  0.00000000E+00  0.00000000E+00
  0.00000000E+00  0.00000000E+00  0.00000000E+00
  0.00000000E+00  0.00000000E+00  0.00000000E+00
  0.00000000E+00  0.00000000E+00  0.00000000E+00
  0.00000000E+00  0.00000000E+00  0.00000000E+00
  0.00000000E+00  0.00000000E+00  0.00000000E+00
  0.00000000E+00  0.00000000E+00  0.00000000E+00
  0.00000000E+00  0.00000000E+00  0.00000000E+00
  0.00000000E+00  0.00000000E+00  0.00000000E+00
  0.00000000E+00  0.00000000E+00  0.00000000E+00
  0.00000000E+00  0.00000000E+00  0.00000000E+00
  0.00000000E+00  0.00000000E+00  0.00000000E+00
  0.00000000E+00  0.00000000E+00  0.00000000E+00
  0.00000000E+00  0.00000000E+00  0.00000000E+00
  0.00000000E+00  0.00000000E+00  0.00000000E+00
  0.00000000E+00  0.00000000E+00  0.00000000E+00
  0.00000000E+00  0.00000000E+00  0.00000000E+00
  0.00000000E+00  0.00000000E+00  0.00000000E+00
  0.00000000E+00  0.00000000E+00  0.00000000E+00
  0.00000000E+00  0.00000000E+00  0.00000000E+00
  0.00000000E+00  0.00000000E+00  0.00000000E+00
  0.00000000E+00  0.00000000E+00  0.00000000E+00
  0.00000000E+00  0.00000000E+00  0.00000000E+00
  0.00000000E+00  0.00000000E+00  0.00000000E+00
  0.00000000E+00  0.00000000E+00  0.00000000E+00
  0.00000000E+00  0.00000000E+00  0.00000000E+00
  0.00000000E+00  0.00000000E+00  0.00000000E+00
  0.00000000E+00  0.00000000E+00  0.00000000E+00
  0.00000000E+00  0.00000000E+00  0.00000000E+00
  0.00000000E+00  0.00000000E+00  0.00000000E+00
