Mg1 Al30
1.0
8.087054 0.000000 0.000000
0.000000 8.087054 0.000000
0.000000 0.000000 8.087054
Mg Al
1 30
direct
0.255826 0.500000 0.255826 Mg
-0.005546 0.000000 -0.005546 Al
0.250376 0.000000 0.250376 Al
0.248255 0.239796 -0.009091 Al
-0.009091 0.239796 0.248255 Al
0.503861 0.000000 -0.005218 Al
0.754365 0.000000 0.246700 Al
0.752714 0.243483 -0.004694 Al
0.511188 0.228614 0.241791 Al
-0.010027 0.500000 -0.010027 Al
0.248255 0.760204 -0.009091 Al
-0.009091 0.760204 0.248255 Al
0.513948 0.500000 -0.011418 Al
0.756284 0.500000 0.239171 Al
0.752714 0.756517 -0.004694 Al
0.511188 0.771386 0.241791 Al
-0.005218 0.000000 0.503861 Al
0.246700 0.000000 0.754365 Al
0.241791 0.228614 0.511188 Al
-0.004694 0.243483 0.752714 Al
0.501872 0.000000 0.501872 Al
0.752166 0.000000 0.752166 Al
0.755273 0.242409 0.505291 Al
0.505291 0.242409 0.755273 Al
-0.011418 0.500000 0.513948 Al
0.239171 0.500000 0.756284 Al
0.241791 0.771386 0.511188 Al
-0.004694 0.756517 0.752714 Al
0.756187 0.500000 0.756187 Al
0.755273 0.757591 0.505291 Al
0.505291 0.757591 0.755273 Al

0.000000 0.000000 0.000000
0.000000 0.000000 0.000000
0.000000 0.000000 0.000000
0.000000 0.000000 0.000000
0.000000 0.000000 0.000000
0.000000 0.000000 0.000000
0.000000 0.000000 0.000000
0.000000 0.000000 0.000000
0.000000 0.000000 0.000000
0.000000 0.000000 0.000000
0.000000 0.000000 0.000000
0.000000 0.000000 0.000000
0.000000 0.000000 0.000000
0.000000 0.000000 0.000000
0.000000 0.000000 0.000000
0.000000 0.000000 0.000000
0.000000 0.000000 0.000000
0.000000 0.000000 0.000000
0.000000 0.000000 0.000000
0.000000 0.000000 0.000000
0.000000 0.000000 0.000000
0.000000 0.000000 0.000000
0.000000 0.000000 0.000000
0.000000 0.000000 0.000000
0.000000 0.000000 0.000000
0.000000 0.000000 0.000000
0.000000 0.000000 0.000000
0.000000 0.000000 0.000000
0.000000 0.000000 0.000000
0.000000 0.000000 0.000000
0.000000 0.000000 0.000000
