Fe3
1.0
3.585051 0.000000 0.000000
0.000000 3.585051 0.000000
0.000000 0.000000 3.585051
Fe
3
direct
0.000000 0.250000 0.250000 Fe
0.500000 0.960721 0.539279 Fe
0.500000 0.539279 0.960721 Fe
