CONTCAR
1
5 1 1
1 5 1
1 1 5
Fe
3
Direct
0.5 0.5 0
0 0 0.1
.1 .2 .3
