POSCAR
1
3 0 0
0 3 0
0 0 3
He
2
Direct
0 0 0
0.5 0.5 0
