Al4
1.0
3.500000 0.000000 0.000000
0.000000 3.500000 0.000000
0.000000 0.000000 3.500000
Al
4
selective dynamics
direct
0.000000 0.000000 0.000000 T F F
0.500000 0.500000 0.000000 F T F
0.000000 0.500000 0.500000 F F T
0.500000 0.000000 0.500000 T T F
