Ga As
5.6266
        1.0                 0.0000000000         0.0000000000
        0.0000000000        1.0                  0.0000000000
        0.0000000000        0.0000000000         1.0
   Ga   As
    4    4
Direct
0.00	0.00	0.00
0.50	0.50	0.00
0.00	0.50	0.50
0.50	0.00	0.50
0.25	0.25	0.25
0.75	0.75	0.25
0.25	0.75	0.75
0.75	0.25	0.75

