ENCUT = 313
IBRION = 2
ISPIN = 2
LCHARG = False
LWAVE = False
NSW = 100
