Ga3 As4                                 
   1.00000000000000     
     6.0000000000000000    1.0000000000000000    1.0000000000000000
     2.0000000000000000    6.0000000000000000    2.0000000000000000
     3.0000000000000000    3.0000000000000000    6.0000000000000000
   Ga   As
   3   4
Selective dynamics
Direct
  0.5007407407407407  0.5009259259259259 -0.0020987654320987   T   T   T
  0.0000000000000000  0.5000000000000000  0.5000000000000000   F   F   F
  0.5000000000000000  0.0000000000000000  0.5000000000000000   F   F   F
  0.3119500000000031  0.3119500000000031  0.3119500000000031   F   F   F
  0.6880499999999969  0.6880499999999969  0.3119500000000031   F   F   F
  0.3119500000000031  0.6880499999999969  0.6880499999999969   F   F   F
  0.6880499999999969  0.3119500000000031  0.6880499999999969   F   F   F
 
  0.00000000E+00  0.00000000E+00  0.00000000E+00
  0.00000000E+00  0.00000000E+00  0.00000000E+00
  0.00000000E+00  0.00000000E+00  0.00000000E+00
  0.00000000E+00  0.00000000E+00  0.00000000E+00
  0.00000000E+00  0.00000000E+00  0.00000000E+00
  0.00000000E+00  0.00000000E+00  0.00000000E+00
  0.00000000E+00  0.00000000E+00  0.00000000E+00
