Ga3 As4                                 
   1.00000000000000     
     5.6265999999999998    0.0000000000000000    0.0000000000000000
     0.0000000000000000    5.6265999999999998    0.0000000000000000
     0.0000000000000000    0.0000000000000000    5.6265999999999998
   Ga   As
   3   4
Direct
  0.5000000000000000  0.5000000000000000  0.0000000000000000
  0.0000000000000000  0.5000000000000000  0.5000000000000000
  0.5000000000000000  0.0000000000000000  0.5000000000000000
  0.2316555678631329  0.2316555678631329  0.2316555678631329
  0.7683444321368671  0.7683444321368671  0.2316555678631329
  0.2316555678631329  0.7683444321368671  0.7683444321368671
  0.7683444321368671  0.2316555678631329  0.7683444321368671
 
  0.00000000E+00  0.00000000E+00  0.00000000E+00
  0.00000000E+00  0.00000000E+00  0.00000000E+00
  0.00000000E+00  0.00000000E+00  0.00000000E+00
  0.00000000E+00  0.00000000E+00  0.00000000E+00
  0.00000000E+00  0.00000000E+00  0.00000000E+00
  0.00000000E+00  0.00000000E+00  0.00000000E+00
  0.00000000E+00  0.00000000E+00  0.00000000E+00
