Al31                                    
   1.00000000000000     
     8.0870519999999999    0.0000000000000000    0.0000000000000000
     0.0000000000000000    8.0870519999999999    0.0000000000000000
     0.0000000000000000    0.0000000000000000    8.0870519999999999
   Al
  31
Direct
  0.9994390000000024  0.0000000000000000  0.9994390000000024
  0.2500000000000000  0.0000000000000000  0.2500000000000000
  0.2500000000000000  0.2532720000000026  0.0032720000000026
  0.0032720000000026  0.2532720000000026  0.2500000000000000
  0.5005609999999976  0.0000000000000000  0.9994390000000024
  0.7500000000000000  0.0000000000000000  0.2500000000000000
  0.7500000000000000  0.2494390000000024  0.9994390000000024
  0.4967279999999974  0.2532720000000026  0.2500000000000000
  0.0032720000000026  0.5000000000000000  0.0032720000000026
  0.2500000000000000  0.7467279999999974  0.0032720000000026
  0.0032720000000026  0.7467279999999974  0.2500000000000000
  0.4967279999999974  0.5000000000000000  0.0032720000000026
  0.7500000000000000  0.5000000000000000  0.2500000000000000
  0.7500000000000000  0.7505609999999976  0.9994390000000024
  0.4967279999999974  0.7467279999999974  0.2500000000000000
  0.9994390000000024  0.0000000000000000  0.5005609999999976
  0.2500000000000000  0.0000000000000000  0.7500000000000000
  0.2500000000000000  0.2532720000000026  0.4967279999999974
  0.9994390000000024  0.2494390000000024  0.7500000000000000
  0.5005609999999976  0.0000000000000000  0.5005609999999976
  0.7500000000000000  0.0000000000000000  0.7500000000000000
  0.7500000000000000  0.2494390000000024  0.5005609999999976
  0.5005609999999976  0.2494390000000024  0.7500000000000000
  0.0032720000000026  0.5000000000000000  0.4967279999999974
  0.2500000000000000  0.5000000000000000  0.7500000000000000
  0.2500000000000000  0.7467279999999974  0.4967279999999974
  0.9994390000000024  0.7505609999999976  0.7500000000000000
  0.4967279999999974  0.5000000000000000  0.4967279999999974
  0.7500000000000000  0.5000000000000000  0.7500000000000000
  0.7500000000000000  0.7505609999999976  0.5005609999999976
  0.5005609999999976  0.7505609999999976  0.7500000000000000
 
  0.00000000E+00  0.00000000E+00  0.00000000E+00
  0.00000000E+00  0.00000000E+00  0.00000000E+00
  0.00000000E+00  0.00000000E+00  0.00000000E+00
  0.00000000E+00  0.00000000E+00  0.00000000E+00
  0.00000000E+00  0.00000000E+00  0.00000000E+00
  0.00000000E+00  0.00000000E+00  0.00000000E+00
  0.00000000E+00  0.00000000E+00  0.00000000E+00
  0.00000000E+00  0.00000000E+00  0.00000000E+00
  0.00000000E+00  0.00000000E+00  0.00000000E+00
  0.00000000E+00  0.00000000E+00  0.00000000E+00
  0.00000000E+00  0.00000000E+00  0.00000000E+00
  0.00000000E+00  0.00000000E+00  0.00000000E+00
  0.00000000E+00  0.00000000E+00  0.00000000E+00
  0.00000000E+00  0.00000000E+00  0.00000000E+00
  0.00000000E+00  0.00000000E+00  0.00000000E+00
  0.00000000E+00  0.00000000E+00  0.00000000E+00
  0.00000000E+00  0.00000000E+00  0.00000000E+00
  0.00000000E+00  0.00000000E+00  0.00000000E+00
  0.00000000E+00  0.00000000E+00  0.00000000E+00
  0.00000000E+00  0.00000000E+00  0.00000000E+00
  0.00000000E+00  0.00000000E+00  0.00000000E+00
  0.00000000E+00  0.00000000E+00  0.00000000E+00
  0.00000000E+00  0.00000000E+00  0.00000000E+00
  0.00000000E+00  0.00000000E+00  0.00000000E+00
  0.00000000E+00  0.00000000E+00  0.00000000E+00
  0.00000000E+00  0.00000000E+00  0.00000000E+00
  0.00000000E+00  0.00000000E+00  0.00000000E+00
  0.00000000E+00  0.00000000E+00  0.00000000E+00
  0.00000000E+00  0.00000000E+00  0.00000000E+00
  0.00000000E+00  0.00000000E+00  0.00000000E+00
  0.00000000E+00  0.00000000E+00  0.00000000E+00
