Al31                                    
   1.00000000000000     
     8.0870540000000002    0.0000000000000000    0.0000000000000000
     0.0000000000000000    8.0870540000000002    0.0000000000000000
     0.0000000000000000    0.0000000000000000    8.0870540000000002
   Al
  31
Direct
  0.3750076833111805  0.5000000000000000  0.3750076833111805
  0.9934212507835102  0.0000000000000000  0.9934212507835102
  0.2496237180564927  0.0000000000000000  0.2496237180564927
  0.2491652398998264  0.2491639058872987  0.0003448196192534
  0.0003448196192534  0.2491639058872987  0.2491652398998264
  0.5049302982243526  0.0000000000000000  0.9973078304508473
  0.7527021712728373  0.0000000000000000  0.2450619750061613
  0.7487302338655837  0.2415117145319198  1.0012758872941558
  0.5086016787119825  0.2392102705119510  0.2413840968627180
  0.0024260866983289  0.5000000000000000  0.0024260866983289
  0.2491652398998264  0.7508360941127012  0.0003448196192534
  0.0003448196192534  0.7508360941127012  0.2491652398998264
  0.4984296960581879  0.5000000000000000  0.0091298098788445
  0.7408913031730791  0.5000000000000000  0.2515553986592595
  0.7487302338655837  0.7584882854680803  1.0012758872941558
  0.5086016787119825  0.7607897294880490  0.2413840968627180
  0.9973078304508473  0.0000000000000000  0.5049302982243526
  0.2450619750061613  0.0000000000000000  0.7527021712728373
  0.2413840968627180  0.2392102705119510  0.5086016787119825
  1.0012758872941558  0.2415117145319198  0.7487302338655837
  0.5003681054746756  0.0000000000000000  0.5003681054746756
  0.7565902236156913  0.0000000000000000  0.7565902236156913
  0.7496689463745156  0.2491587916170364  0.5008284513995838
  0.5008284513995838  0.2491587916170364  0.7496689463745156
  0.0091298098788445  0.5000000000000000  0.4984296960581879
  0.2515553986592595  0.5000000000000000  0.7408913031730791
  0.2413840968627180  0.7607897294880490  0.5086016787119825
  1.0012758872941558  0.7584882854680803  0.7487302338655837
  0.7475886366043953  0.5000000000000000  0.7475886366043953
  0.7496689463745156  0.7508412083829635  0.5008284513995838
  0.5008284513995838  0.7508412083829635  0.7496689463745156
 
  0.00000000E+00  0.00000000E+00  0.00000000E+00
  0.00000000E+00  0.00000000E+00  0.00000000E+00
  0.00000000E+00  0.00000000E+00  0.00000000E+00
  0.00000000E+00  0.00000000E+00  0.00000000E+00
  0.00000000E+00  0.00000000E+00  0.00000000E+00
  0.00000000E+00  0.00000000E+00  0.00000000E+00
  0.00000000E+00  0.00000000E+00  0.00000000E+00
  0.00000000E+00  0.00000000E+00  0.00000000E+00
  0.00000000E+00  0.00000000E+00  0.00000000E+00
  0.00000000E+00  0.00000000E+00  0.00000000E+00
  0.00000000E+00  0.00000000E+00  0.00000000E+00
  0.00000000E+00  0.00000000E+00  0.00000000E+00
  0.00000000E+00  0.00000000E+00  0.00000000E+00
  0.00000000E+00  0.00000000E+00  0.00000000E+00
  0.00000000E+00  0.00000000E+00  0.00000000E+00
  0.00000000E+00  0.00000000E+00  0.00000000E+00
  0.00000000E+00  0.00000000E+00  0.00000000E+00
  0.00000000E+00  0.00000000E+00  0.00000000E+00
  0.00000000E+00  0.00000000E+00  0.00000000E+00
  0.00000000E+00  0.00000000E+00  0.00000000E+00
  0.00000000E+00  0.00000000E+00  0.00000000E+00
  0.00000000E+00  0.00000000E+00  0.00000000E+00
  0.00000000E+00  0.00000000E+00  0.00000000E+00
  0.00000000E+00  0.00000000E+00  0.00000000E+00
  0.00000000E+00  0.00000000E+00  0.00000000E+00
  0.00000000E+00  0.00000000E+00  0.00000000E+00
  0.00000000E+00  0.00000000E+00  0.00000000E+00
  0.00000000E+00  0.00000000E+00  0.00000000E+00
  0.00000000E+00  0.00000000E+00  0.00000000E+00
  0.00000000E+00  0.00000000E+00  0.00000000E+00
  0.00000000E+00  0.00000000E+00  0.00000000E+00
