Al31
1.0
8.087054 0.000000 0.000000
0.000000 8.087054 0.000000
0.000000 0.000000 8.087054
Al
31
direct
0.374979 0.500000 0.374979 Al
-0.000259 0.000000 -0.000259 Al
0.249726 0.000000 0.249726 Al
0.249726 0.251358 0.001632 Al
0.001632 0.251358 0.249726 Al
0.500259 0.000000 -0.000259 Al
0.750274 0.000000 0.249726 Al
0.750274 0.249467 -0.000259 Al
0.498368 0.253243 0.251611 Al
0.001632 0.500000 0.001632 Al
0.249726 0.748642 0.001632 Al
0.001632 0.748642 0.249726 Al
0.498368 0.500000 0.001632 Al
0.748389 0.500000 0.251611 Al
0.750274 0.750533 -0.000259 Al
0.498368 0.746757 0.251611 Al
-0.000259 0.000000 0.500259 Al
0.249726 0.000000 0.750274 Al
0.251611 0.253243 0.498368 Al
-0.000259 0.249467 0.750274 Al
0.500259 0.000000 0.500259 Al
0.750274 0.000000 0.750274 Al
0.748389 0.251351 0.500259 Al
0.500259 0.251351 0.748389 Al
0.001632 0.500000 0.498368 Al
0.251611 0.500000 0.748389 Al
0.251611 0.746757 0.498368 Al
-0.000259 0.750533 0.750274 Al
0.748389 0.500000 0.748389 Al
0.748389 0.748649 0.500259 Al
0.500259 0.748649 0.748389 Al
