Al29 Ag1 Pt1 Au1
1.0
8.087040 0.000000 0.000000
0.000000 8.087040 0.000000
0.000000 0.000000 8.087040
Al Au Pt Ag
29 1 1 1
direct
0.005574 -0.006203 0.999476 Al
0.254220 0.992866 0.242535 Al
0.252517 0.244621 0.999512 Al
1.000254 0.250388 0.248814 Al
0.753086 0.000633 0.251537 Al
0.751586 0.252943 -0.000727 Al
0.502613 0.252878 0.250369 Al
0.996744 0.498676 1.000254 Al
0.249566 0.498347 0.250960 Al
0.998208 0.747278 0.250087 Al
0.496479 0.503275 0.000696 Al
0.750456 0.500285 0.246550 Al
0.746600 0.750269 0.001109 Al
0.495473 0.752185 0.244523 Al
0.999821 1.000361 0.497758 Al
0.251185 0.251374 0.497722 Al
0.999620 0.251704 0.747785 Al
0.502194 0.001718 0.499447 Al
0.750967 0.001320 0.749764 Al
0.751708 0.249666 0.498593 Al
0.500787 0.252149 0.749927 Al
1.001896 0.499631 0.499062 Al
0.249464 0.501469 0.752604 Al
0.248914 0.748017 0.500691 Al
1.000887 0.749536 0.753068 Al
0.501362 0.500967 0.496846 Al
0.751994 0.499997 0.748752 Al
0.750780 0.749749 0.497399 Al
0.491301 0.757916 0.759837 Al
0.435047 0.989589 0.935047 Au
0.260346 0.853320 0.989743 Pt
0.250014 0.886436 0.750056 Ag

0.000000 0.000000 0.000000
0.000000 0.000000 0.000000
0.000000 0.000000 0.000000
0.000000 0.000000 0.000000
0.000000 0.000000 0.000000
0.000000 0.000000 0.000000
0.000000 0.000000 0.000000
0.000000 0.000000 0.000000
0.000000 0.000000 0.000000
0.000000 0.000000 0.000000
0.000000 0.000000 0.000000
0.000000 0.000000 0.000000
0.000000 0.000000 0.000000
0.000000 0.000000 0.000000
0.000000 0.000000 0.000000
0.000000 0.000000 0.000000
0.000000 0.000000 0.000000
0.000000 0.000000 0.000000
0.000000 0.000000 0.000000
0.000000 0.000000 0.000000
0.000000 0.000000 0.000000
0.000000 0.000000 0.000000
0.000000 0.000000 0.000000
0.000000 0.000000 0.000000
0.000000 0.000000 0.000000
0.000000 0.000000 0.000000
0.000000 0.000000 0.000000
0.000000 0.000000 0.000000
0.000000 0.000000 0.000000
0.000000 0.000000 0.000000
0.000000 0.000000 0.000000
0.000000 0.000000 0.000000
