Al                                      
   1.00000000000000     
    10.9063935956658007    0.0000000000000000    0.0000000000000000
     0.0000000000000000   10.9063935956658007    0.0000000000000000
     0.0000000000000000    0.0000000000000000   10.9063935956658025
   Al   Mg
     1   106
Direct
  0.0000000000000000  0.0000000000000000  0.0012258342219056
  0.1654412394483629  0.0000000000000000  0.1695390413476332
  0.0000000000000000  0.0000000000000000  0.6648212908686375
  0.0000000000000000  0.3337361671328480  0.0003009299522105
  0.0000000000000000  0.3325513811008136  0.3337589331949644
  0.0000000000000000  0.3333130109434848  0.6658852165829714
  0.0000000000000000  0.6662638328671520  0.0003009299522105
  0.0000000000000000  0.6674486188991864  0.3337589331949644
  0.0000000000000000  0.6666869890565152  0.6658852165829714
  0.3337361671328480  0.0000000000000000  0.0003009299522105
  0.3325513811008136  0.0000000000000000  0.3337589331949644
  0.3333130109434848  0.0000000000000000  0.6658852165829714
  0.3335330530547935  0.3335330530547935  0.0003327663859807
  0.3333333472574012  0.3333333472574012  0.3336749554591165
  0.3332871226839629  0.3332871226839629  0.6660402024197083
  0.3335330530547935  0.6664669469452065  0.0003327663859807
  0.3333333472574012  0.6666666527425988  0.3336749554591165
  0.3332871226839629  0.6667128773160371  0.6660402024197083
  0.6662638328671520  0.0000000000000000  0.0003009299522105
  0.6674486188991864  0.0000000000000000  0.3337589331949644
  0.6666869890565152  0.0000000000000000  0.6658852165829714
  0.6664669469452065  0.3335330530547935  0.0003327663859807
  0.6666666527425988  0.3333333472574012  0.3336749554591165
  0.6667128773160371  0.3332871226839629  0.6660402024197083
  0.6664669469452065  0.6664669469452065  0.0003327663859807
  0.6666666527425988  0.6666666527425988  0.3336749554591165
  0.6667128773160371  0.6667128773160371  0.6660402024197083
  0.0000000000000000  0.1654412394483629  0.1695390413476332
  0.0000000000000000  0.1648988503399949  0.4979351175810365
  0.0000000000000000  0.1670938813702634  0.8326140346701791
  0.0000000000000000  0.5000000000000000  0.1674222615974728
  0.0000000000000000  0.5000000000000000  0.4995527866752099
  0.0000000000000000  0.5000000000000000  0.8329264001941539
  0.0000000000000000  0.8345587605516371  0.1695390413476332
  0.0000000000000000  0.8351011496600051  0.4979351175810365
  0.0000000000000000  0.8329061186297366  0.8326140346701791
  0.3329017010103925  0.1664612838735451  0.1676425952285854
  0.3327645081695891  0.1662964425539215  0.4994024081510631
  0.3333198187490467  0.1668199882228834  0.8329079789569604
  0.3332025164607018  0.5000000000000000  0.1671794543461473
  0.3330752120794429  0.5000000000000000  0.4997796281935223
  0.3334746778916653  0.5000000000000000  0.8330811012194914
  0.3329017010103925  0.8335387161264549  0.1676425952285854
  0.3327645081695891  0.8337035574460785  0.4994024081510631
  0.3333198187490467  0.8331800117771166  0.8329079789569604
  0.6670982989896075  0.1664612838735451  0.1676425952285854
  0.6672354918304109  0.1662964425539215  0.4994024081510631
  0.6666801812509533  0.1668199882228834  0.8329079789569604
  0.6667974835392982  0.5000000000000000  0.1671794543461473
  0.6669247879205571  0.5000000000000000  0.4997796281935223
  0.6665253221083347  0.5000000000000000  0.8330811012194914
  0.6670982989896075  0.8335387161264549  0.1676425952285854
  0.6672354918304109  0.8337035574460785  0.4994024081510631
  0.6666801812509533  0.8331800117771166  0.8329079789569604
  0.1648988503399949  0.0000000000000000  0.4979351175810365
  0.1670938813702634  0.0000000000000000  0.8326140346701791
  0.1664612838735451  0.3329017010103925  0.1676425952285854
  0.1662964425539215  0.3327645081695891  0.4994024081510631
  0.1668199882228834  0.3333198187490467  0.8329079789569604
  0.1664612838735451  0.6670982989896075  0.1676425952285854
  0.1662964425539215  0.6672354918304109  0.4994024081510631
  0.1668199882228834  0.6666801812509533  0.8329079789569604
  0.5000000000000000  0.0000000000000000  0.1674222615974728
  0.5000000000000000  0.0000000000000000  0.4995527866752099
  0.5000000000000000  0.0000000000000000  0.8329264001941539
  0.5000000000000000  0.3332025164607018  0.1671794543461473
  0.5000000000000000  0.3330752120794429  0.4997796281935223
  0.5000000000000000  0.3334746778916653  0.8330811012194914
  0.5000000000000000  0.6667974835392982  0.1671794543461473
  0.5000000000000000  0.6669247879205571  0.4997796281935223
  0.5000000000000000  0.6665253221083347  0.8330811012194914
  0.8345587605516371  0.0000000000000000  0.1695390413476332
  0.8351011496600051  0.0000000000000000  0.4979351175810365
  0.8329061186297366  0.0000000000000000  0.8326140346701791
  0.8335387161264549  0.3329017010103925  0.1676425952285854
  0.8337035574460785  0.3327645081695891  0.4994024081510631
  0.8331800117771166  0.3333198187490467  0.8329079789569604
  0.8335387161264549  0.6670982989896075  0.1676425952285854
  0.8337035574460785  0.6672354918304109  0.4994024081510631
  0.8331800117771166  0.6666801812509533  0.8329079789569604
  0.1671881424056920  0.1671881424056920  0.0008485997501211
  0.1651635147741928  0.1651635147741928  0.3336860432549571
  0.1664256495245695  0.1664256495245695  0.6654583607073405
  0.1667497888759968  0.5000000000000000  0.0004395123914520
  0.1664175954465534  0.5000000000000000  0.3336558043574769
  0.1666027690670830  0.5000000000000000  0.6659212391070923
  0.1671881424056920  0.8328118575943080  0.0008485997501211
  0.1651635147741928  0.8348364852258072  0.3336860432549571
  0.1664256495245695  0.8335743504754305  0.6654583607073405
  0.5000000000000000  0.1667497888759968  0.0004395123914520
  0.5000000000000000  0.1664175954465534  0.3336558043574769
  0.5000000000000000  0.1666027690670830  0.6659212391070923
  0.5000000000000000  0.5000000000000000  0.0001843838480298
  0.5000000000000000  0.5000000000000000  0.3335273922043029
  0.5000000000000000  0.5000000000000000  0.6663340738716741
  0.5000000000000000  0.8332502111239961  0.0004395123914520
  0.5000000000000000  0.8335824045534466  0.3336558043574769
  0.5000000000000000  0.8333972309329170  0.6659212391070923
  0.8328118575943080  0.1671881424056920  0.0008485997501211
  0.8348364852258072  0.1651635147741928  0.3336860432549571
  0.8335743504754305  0.1664256495245695  0.6654583607073405
  0.8332502111239961  0.5000000000000000  0.0004395123914520
  0.8335824045534466  0.5000000000000000  0.3336558043574769
  0.8333972309329170  0.5000000000000000  0.6659212391070923
  0.8328118575943080  0.8328118575943080  0.0008485997501211
  0.8348364852258072  0.8348364852258072  0.3336860432549571
  0.8335743504754305  0.8335743504754305  0.6654583607073405
 
  0.00000000E+00  0.00000000E+00  0.00000000E+00
  0.00000000E+00  0.00000000E+00  0.00000000E+00
  0.00000000E+00  0.00000000E+00  0.00000000E+00
  0.00000000E+00  0.00000000E+00  0.00000000E+00
  0.00000000E+00  0.00000000E+00  0.00000000E+00
  0.00000000E+00  0.00000000E+00  0.00000000E+00
  0.00000000E+00  0.00000000E+00  0.00000000E+00
  0.00000000E+00  0.00000000E+00  0.00000000E+00
  0.00000000E+00  0.00000000E+00  0.00000000E+00
  0.00000000E+00  0.00000000E+00  0.00000000E+00
  0.00000000E+00  0.00000000E+00  0.00000000E+00
  0.00000000E+00  0.00000000E+00  0.00000000E+00
  0.00000000E+00  0.00000000E+00  0.00000000E+00
  0.00000000E+00  0.00000000E+00  0.00000000E+00
  0.00000000E+00  0.00000000E+00  0.00000000E+00
  0.00000000E+00  0.00000000E+00  0.00000000E+00
  0.00000000E+00  0.00000000E+00  0.00000000E+00
  0.00000000E+00  0.00000000E+00  0.00000000E+00
  0.00000000E+00  0.00000000E+00  0.00000000E+00
  0.00000000E+00  0.00000000E+00  0.00000000E+00
  0.00000000E+00  0.00000000E+00  0.00000000E+00
  0.00000000E+00  0.00000000E+00  0.00000000E+00
  0.00000000E+00  0.00000000E+00  0.00000000E+00
  0.00000000E+00  0.00000000E+00  0.00000000E+00
  0.00000000E+00  0.00000000E+00  0.00000000E+00
  0.00000000E+00  0.00000000E+00  0.00000000E+00
  0.00000000E+00  0.00000000E+00  0.00000000E+00
  0.00000000E+00  0.00000000E+00  0.00000000E+00
  0.00000000E+00  0.00000000E+00  0.00000000E+00
  0.00000000E+00  0.00000000E+00  0.00000000E+00
  0.00000000E+00  0.00000000E+00  0.00000000E+00
  0.00000000E+00  0.00000000E+00  0.00000000E+00
  0.00000000E+00  0.00000000E+00  0.00000000E+00
  0.00000000E+00  0.00000000E+00  0.00000000E+00
  0.00000000E+00  0.00000000E+00  0.00000000E+00
  0.00000000E+00  0.00000000E+00  0.00000000E+00
  0.00000000E+00  0.00000000E+00  0.00000000E+00
  0.00000000E+00  0.00000000E+00  0.00000000E+00
  0.00000000E+00  0.00000000E+00  0.00000000E+00
  0.00000000E+00  0.00000000E+00  0.00000000E+00
  0.00000000E+00  0.00000000E+00  0.00000000E+00
  0.00000000E+00  0.00000000E+00  0.00000000E+00
  0.00000000E+00  0.00000000E+00  0.00000000E+00
  0.00000000E+00  0.00000000E+00  0.00000000E+00
  0.00000000E+00  0.00000000E+00  0.00000000E+00
  0.00000000E+00  0.00000000E+00  0.00000000E+00
  0.00000000E+00  0.00000000E+00  0.00000000E+00
  0.00000000E+00  0.00000000E+00  0.00000000E+00
  0.00000000E+00  0.00000000E+00  0.00000000E+00
  0.00000000E+00  0.00000000E+00  0.00000000E+00
  0.00000000E+00  0.00000000E+00  0.00000000E+00
  0.00000000E+00  0.00000000E+00  0.00000000E+00
  0.00000000E+00  0.00000000E+00  0.00000000E+00
  0.00000000E+00  0.00000000E+00  0.00000000E+00
  0.00000000E+00  0.00000000E+00  0.00000000E+00
  0.00000000E+00  0.00000000E+00  0.00000000E+00
  0.00000000E+00  0.00000000E+00  0.00000000E+00
  0.00000000E+00  0.00000000E+00  0.00000000E+00
  0.00000000E+00  0.00000000E+00  0.00000000E+00
  0.00000000E+00  0.00000000E+00  0.00000000E+00
  0.00000000E+00  0.00000000E+00  0.00000000E+00
  0.00000000E+00  0.00000000E+00  0.00000000E+00
  0.00000000E+00  0.00000000E+00  0.00000000E+00
  0.00000000E+00  0.00000000E+00  0.00000000E+00
  0.00000000E+00  0.00000000E+00  0.00000000E+00
  0.00000000E+00  0.00000000E+00  0.00000000E+00
  0.00000000E+00  0.00000000E+00  0.00000000E+00
  0.00000000E+00  0.00000000E+00  0.00000000E+00
  0.00000000E+00  0.00000000E+00  0.00000000E+00
  0.00000000E+00  0.00000000E+00  0.00000000E+00
  0.00000000E+00  0.00000000E+00  0.00000000E+00
  0.00000000E+00  0.00000000E+00  0.00000000E+00
  0.00000000E+00  0.00000000E+00  0.00000000E+00
  0.00000000E+00  0.00000000E+00  0.00000000E+00
  0.00000000E+00  0.00000000E+00  0.00000000E+00
  0.00000000E+00  0.00000000E+00  0.00000000E+00
  0.00000000E+00  0.00000000E+00  0.00000000E+00
  0.00000000E+00  0.00000000E+00  0.00000000E+00
  0.00000000E+00  0.00000000E+00  0.00000000E+00
  0.00000000E+00  0.00000000E+00  0.00000000E+00
  0.00000000E+00  0.00000000E+00  0.00000000E+00
  0.00000000E+00  0.00000000E+00  0.00000000E+00
  0.00000000E+00  0.00000000E+00  0.00000000E+00
  0.00000000E+00  0.00000000E+00  0.00000000E+00
  0.00000000E+00  0.00000000E+00  0.00000000E+00
  0.00000000E+00  0.00000000E+00  0.00000000E+00
  0.00000000E+00  0.00000000E+00  0.00000000E+00
  0.00000000E+00  0.00000000E+00  0.00000000E+00
  0.00000000E+00  0.00000000E+00  0.00000000E+00
  0.00000000E+00  0.00000000E+00  0.00000000E+00
  0.00000000E+00  0.00000000E+00  0.00000000E+00
  0.00000000E+00  0.00000000E+00  0.00000000E+00
  0.00000000E+00  0.00000000E+00  0.00000000E+00
  0.00000000E+00  0.00000000E+00  0.00000000E+00
  0.00000000E+00  0.00000000E+00  0.00000000E+00
  0.00000000E+00  0.00000000E+00  0.00000000E+00
  0.00000000E+00  0.00000000E+00  0.00000000E+00
  0.00000000E+00  0.00000000E+00  0.00000000E+00
  0.00000000E+00  0.00000000E+00  0.00000000E+00
  0.00000000E+00  0.00000000E+00  0.00000000E+00
  0.00000000E+00  0.00000000E+00  0.00000000E+00
  0.00000000E+00  0.00000000E+00  0.00000000E+00
  0.00000000E+00  0.00000000E+00  0.00000000E+00
  0.00000000E+00  0.00000000E+00  0.00000000E+00
  0.00000000E+00  0.00000000E+00  0.00000000E+00
  0.00000000E+00  0.00000000E+00  0.00000000E+00
  0.00000000E+00  0.00000000E+00  0.00000000E+00
