Cr2 Fe4 Ni2
1.0
4.000000 0.000000 0.000000
0.000000 4.000000 0.000000
0.000000 0.000000 4.000000
Cr Fe Ni
2 4 2
direct
0.300000 0.000000 0.000000 Cr
0.000000 0.600000 0.000000 Cr
0.000000 0.300000 0.000000 Fe
0.300000 0.600000 0.000000 Fe
0.600000 0.300000 0.000000 Fe
0.600000 0.600000 0.000000 Fe
0.600000 0.000000 0.000000 Ni
0.300000 0.300000 0.000000 Ni
