Mg1 Al30
1.0
8.087054 0.000000 0.000000
0.000000 8.087054 0.000000
0.000000 0.000000 8.087054
Mg Al
1 30
direct
0.374996 0.500000 0.374996 Mg
0.999269 0.000000 0.999269 Al
0.248729 0.000000 0.248729 Al
0.250787 0.252054 0.002918 Al
0.002918 0.252054 0.250787 Al
0.499871 0.000000 0.996401 Al
0.753596 0.000000 0.250131 Al
0.751507 0.249086 0.998494 Al
0.502357 0.247557 0.247640 Al
1.001743 0.500000 1.001743 Al
0.250787 0.747946 0.002918 Al
0.002918 0.747946 0.250787 Al
0.500579 0.500000 1.000300 Al
0.749705 0.500000 0.249417 Al
0.751507 0.750914 0.998494 Al
0.502357 0.752443 0.247640 Al
0.996401 0.000000 0.499871 Al
0.250131 0.000000 0.753596 Al
0.247640 0.247557 0.502357 Al
0.998494 0.249086 0.751507 Al
0.501271 0.000000 0.501271 Al
0.750730 0.000000 0.750730 Al
0.747084 0.252053 0.499215 Al
0.499215 0.252053 0.747084 Al
1.000300 0.500000 0.500579 Al
0.249417 0.500000 0.749705 Al
0.247640 0.752443 0.502357 Al
0.998494 0.750914 0.751507 Al
0.748258 0.500000 0.748258 Al
0.747084 0.747947 0.499215 Al
0.499215 0.747947 0.747084 Al
