Mg1 Al30                                
   1.00000000000000     
     8.0870540000000002    0.0000000000000000    0.0000000000000000
     0.0000000000000000    8.0870540000000002    0.0000000000000000
     0.0000000000000000    0.0000000000000000    8.0870540000000002
   Mg   Al
   1  30
Direct
  0.2558261671466674  0.5000000000000000  0.2558261671466674
 -0.0055463415551941  0.0000000000000000 -0.0055463415551941
  0.2503763483028678  0.0000000000000000  0.2503763483028678
  0.2482546807754968  0.2397962882932904 -0.0090911542473918
 -0.0090911542473918  0.2397962882932904  0.2482546807754968
  0.5038608842778414  0.0000000000000000 -0.0052183327988573
  0.7543654109581637  0.0000000000000000  0.2466997624631949
  0.7527139739657931  0.2434834776474004 -0.0046937278338135
  0.5111876359016942  0.2286135406695029  0.2417910350482824
 -0.0100269012230339  0.5000000000000000 -0.0100269012230339
  0.2482546807754968  0.7602037117067095 -0.0090911542473918
 -0.0090911542473918  0.7602037117067095  0.2482546807754968
  0.5139476877506055  0.5000000000000000 -0.0114175164809269
  0.7562835445275178  0.5000000000000000  0.2391713545492743
  0.7527139739657931  0.7565165223525996 -0.0046937278338135
  0.5111876359016942  0.7713864593304971  0.2417910350482824
 -0.0052183327988573  0.0000000000000000  0.5038608842778414
  0.2466997624631949  0.0000000000000000  0.7543654109581637
  0.2417910350482824  0.2286135406695029  0.5111876359016942
 -0.0046937278338135  0.2434834776474004  0.7527139739657931
  0.5018724301153695  0.0000000000000000  0.5018724301153695
  0.7521663088125116  0.0000000000000000  0.7521663088125116
  0.7552725977578479  0.2424091560426688  0.5052910506528263
  0.5052910506528263  0.2424091560426688  0.7552725977578479
 -0.0114175164809269  0.5000000000000000  0.5139476877506055
  0.2391713545492743  0.5000000000000000  0.7562835445275178
  0.2417910350482824  0.7713864593304971  0.5111876359016942
 -0.0046937278338135  0.7565165223525996  0.7527139739657931
  0.7561870091125271  0.5000000000000000  0.7561870091125271
  0.7552725977578479  0.7575908439573312  0.5052910506528263
  0.5052910506528263  0.7575908439573312  0.7552725977578479
 
  0.00000000E+00  0.00000000E+00  0.00000000E+00
  0.00000000E+00  0.00000000E+00  0.00000000E+00
  0.00000000E+00  0.00000000E+00  0.00000000E+00
  0.00000000E+00  0.00000000E+00  0.00000000E+00
  0.00000000E+00  0.00000000E+00  0.00000000E+00
  0.00000000E+00  0.00000000E+00  0.00000000E+00
  0.00000000E+00  0.00000000E+00  0.00000000E+00
  0.00000000E+00  0.00000000E+00  0.00000000E+00
  0.00000000E+00  0.00000000E+00  0.00000000E+00
  0.00000000E+00  0.00000000E+00  0.00000000E+00
  0.00000000E+00  0.00000000E+00  0.00000000E+00
  0.00000000E+00  0.00000000E+00  0.00000000E+00
  0.00000000E+00  0.00000000E+00  0.00000000E+00
  0.00000000E+00  0.00000000E+00  0.00000000E+00
  0.00000000E+00  0.00000000E+00  0.00000000E+00
  0.00000000E+00  0.00000000E+00  0.00000000E+00
  0.00000000E+00  0.00000000E+00  0.00000000E+00
  0.00000000E+00  0.00000000E+00  0.00000000E+00
  0.00000000E+00  0.00000000E+00  0.00000000E+00
  0.00000000E+00  0.00000000E+00  0.00000000E+00
  0.00000000E+00  0.00000000E+00  0.00000000E+00
  0.00000000E+00  0.00000000E+00  0.00000000E+00
  0.00000000E+00  0.00000000E+00  0.00000000E+00
  0.00000000E+00  0.00000000E+00  0.00000000E+00
  0.00000000E+00  0.00000000E+00  0.00000000E+00
  0.00000000E+00  0.00000000E+00  0.00000000E+00
  0.00000000E+00  0.00000000E+00  0.00000000E+00
  0.00000000E+00  0.00000000E+00  0.00000000E+00
  0.00000000E+00  0.00000000E+00  0.00000000E+00
  0.00000000E+00  0.00000000E+00  0.00000000E+00
  0.00000000E+00  0.00000000E+00  0.00000000E+00
