Al                                      
   1.00000000000000     
    10.9063935956658007    0.0000000000000000    0.0000000000000000
     0.0000000000000000   10.9063935956658007    0.0000000000000000
     0.0000000000000000    0.0000000000000000   10.9063935956658025
   Al   Mg
     1   106
Direct
  0.0000000000000000  0.0039959193006638  0.0039959193006638
  0.0000000000000000  0.0021688979098471  0.3313745050198378
  0.0000000000000000  0.0005249769354094  0.6662917275039391
  0.0000000000000000  0.3313745050198378  0.0021688979098471
  0.0000000000000000  0.3313083330488880  0.3313083330488880
  0.0000000000000000  0.3332152484108377  0.6663660206103685
  0.0000000000000000  0.6662917275039391  0.0005249769354094
  0.0000000000000000  0.6663660206103685  0.3332152484108377
  0.0000000000000000  0.6662390915045933  0.6662390915045933
  0.3334392243131958  0.0004825378309974  0.0004825378309974
  0.3330680258107890  0.0005434846224972  0.3333111618023068
  0.3333901707842699  0.0003035079329052  0.6661274841661111
  0.3330680258107890  0.3333111618023068  0.0005434846224972
  0.3326590847849928  0.3329986215678744  0.3329986215678744
  0.3331885336549760  0.3334387786741217  0.6662947022148913
  0.3333901707842699  0.6661274841661111  0.0003035079329052
  0.3331885336549760  0.6662947022148913  0.3334387786741217
  0.3333046022534916  0.6663518956670345  0.6663518956670345
  0.6665607756868042  0.0004825378309974  0.0004825378309974
  0.6669319741892110  0.0005434846224972  0.3333111618023068
  0.6666098292157301  0.0003035079329052  0.6661274841661111
  0.6669319741892110  0.3333111618023068  0.0005434846224972
  0.6673409152150072  0.3329986215678744  0.3329986215678744
  0.6668114663450240  0.3334387786741217  0.6662947022148913
  0.6666098292157301  0.6661274841661111  0.0003035079329052
  0.6668114663450240  0.6662947022148913  0.3334387786741217
  0.6666953977465084  0.6663518956670345  0.6663518956670345
  0.1664843156828653  0.0016728224264497  0.1675598034197918
  0.0000000000000000  0.1668703965204728  0.4988040936476139
  0.0000000000000000  0.1674031312275943  0.8342680565754890
  0.0000000000000000  0.4988040936476139  0.1668703965204728
  0.0000000000000000  0.4994880667197634  0.4994880667197634
  0.0000000000000000  0.4996770224079086  0.8334778927904125
  0.0000000000000000  0.8342680565754890  0.1674031312275943
  0.0000000000000000  0.8334778927904125  0.4996770224079086
  0.0000000000000000  0.8334105101201885  0.8334105101201885
  0.3327237300481301  0.1670890913779246  0.1670890913779246
  0.3331472748061870  0.1669362740912490  0.4996998656304115
  0.3336704879571428  0.1671255050570934  0.8329639950254659
  0.3331472748061870  0.4996998656304115  0.1669362740912490
  0.3331071961218370  0.4996140282367207  0.4996140282367207
  0.3332489032227386  0.4997139846555285  0.8334549599171481
  0.3336704879571428  0.8329639950254659  0.1671255050570934
  0.3332489032227386  0.8334549599171481  0.4997139846555285
  0.3334367997010830  0.8332506919837854  0.8332506919837854
  0.6672762699518699  0.1670890913779246  0.1670890913779246
  0.6668527251938130  0.1669362740912490  0.4996998656304115
  0.6663295120428572  0.1671255050570934  0.8329639950254659
  0.6668527251938130  0.4996998656304115  0.1669362740912490
  0.6668928038781630  0.4996140282367207  0.4996140282367207
  0.6667510967772614  0.4997139846555285  0.8334549599171481
  0.6663295120428572  0.8329639950254659  0.1671255050570934
  0.6667510967772614  0.8334549599171481  0.4997139846555285
  0.6665632002989170  0.8332506919837854  0.8332506919837854
  0.1662626080255407  0.0005706703106014  0.4991101510795346
  0.1671163496359469  0.0004627085559150  0.8331870876174960
  0.1650478652563905  0.3315754680767000  0.1668904016943387
  0.1661998794507440  0.3329287452243221  0.4990949523771775
  0.1665486376811458  0.3331979502915630  0.8337317655472560
  0.1664476327467526  0.6664322488344112  0.1670537080508439
  0.1665199326569748  0.6663597232260585  0.4995856346432603
  0.1667239329713581  0.6663022617711505  0.8333426327919895
  0.5000000000000000  0.0004563783206422  0.1670559506196767
  0.5000000000000000  0.0003574972715299  0.4996243191612564
  0.5000000000000000  0.0002801415049163  0.8333184173540076
  0.5000000000000000  0.3332309005032386  0.1669640219962290
  0.5000000000000000  0.3332744733470818  0.4994975881180608
  0.5000000000000000  0.3334907884879215  0.8335037881716332
  0.5000000000000000  0.6661467516417545  0.1669760065076034
  0.5000000000000000  0.6664362886833359  0.4997629562526527
  0.5000000000000000  0.6663498206293283  0.8333584693864111
  0.8335156843171347  0.0016728224264497  0.1675598034197918
  0.8337373919744593  0.0005706703106014  0.4991101510795346
  0.8328836503640531  0.0004627085559150  0.8331870876174960
  0.8349521347436095  0.3315754680767000  0.1668904016943387
  0.8338001205492560  0.3329287452243221  0.4990949523771775
  0.8334513623188542  0.3331979502915630  0.8337317655472560
  0.8335523672532474  0.6664322488344112  0.1670537080508439
  0.8334800673430252  0.6663597232260585  0.4995856346432603
  0.8332760670286419  0.6663022617711505  0.8333426327919895
  0.1664843156828653  0.1675598034197918  0.0016728224264497
  0.1650478652563905  0.1668904016943387  0.3315754680767000
  0.1664476327467526  0.1670537080508439  0.6664322488344112
  0.1662626080255407  0.4991101510795346  0.0005706703106014
  0.1661998794507440  0.4990949523771775  0.3329287452243221
  0.1665199326569748  0.4995856346432603  0.6663597232260585
  0.1671163496359469  0.8331870876174960  0.0004627085559150
  0.1665486376811458  0.8337317655472560  0.3331979502915630
  0.1667239329713581  0.8333426327919895  0.6663022617711505
  0.5000000000000000  0.1670559506196767  0.0004563783206422
  0.5000000000000000  0.1669640219962290  0.3332309005032386
  0.5000000000000000  0.1669760065076034  0.6661467516417545
  0.5000000000000000  0.4996243191612564  0.0003574972715299
  0.5000000000000000  0.4994975881180608  0.3332744733470818
  0.5000000000000000  0.4997629562526527  0.6664362886833359
  0.5000000000000000  0.8333184173540076  0.0002801415049163
  0.5000000000000000  0.8335037881716332  0.3334907884879215
  0.5000000000000000  0.8333584693864111  0.6663498206293283
  0.8335156843171347  0.1675598034197918  0.0016728224264497
  0.8349521347436095  0.1668904016943387  0.3315754680767000
  0.8335523672532474  0.1670537080508439  0.6664322488344112
  0.8337373919744593  0.4991101510795346  0.0005706703106014
  0.8338001205492560  0.4990949523771775  0.3329287452243221
  0.8334800673430252  0.4995856346432603  0.6663597232260585
  0.8328836503640531  0.8331870876174960  0.0004627085559150
  0.8334513623188542  0.8337317655472560  0.3331979502915630
  0.8332760670286419  0.8333426327919895  0.6663022617711505
 
  0.00000000E+00  0.00000000E+00  0.00000000E+00
  0.00000000E+00  0.00000000E+00  0.00000000E+00
  0.00000000E+00  0.00000000E+00  0.00000000E+00
  0.00000000E+00  0.00000000E+00  0.00000000E+00
  0.00000000E+00  0.00000000E+00  0.00000000E+00
  0.00000000E+00  0.00000000E+00  0.00000000E+00
  0.00000000E+00  0.00000000E+00  0.00000000E+00
  0.00000000E+00  0.00000000E+00  0.00000000E+00
  0.00000000E+00  0.00000000E+00  0.00000000E+00
  0.00000000E+00  0.00000000E+00  0.00000000E+00
  0.00000000E+00  0.00000000E+00  0.00000000E+00
  0.00000000E+00  0.00000000E+00  0.00000000E+00
  0.00000000E+00  0.00000000E+00  0.00000000E+00
  0.00000000E+00  0.00000000E+00  0.00000000E+00
  0.00000000E+00  0.00000000E+00  0.00000000E+00
  0.00000000E+00  0.00000000E+00  0.00000000E+00
  0.00000000E+00  0.00000000E+00  0.00000000E+00
  0.00000000E+00  0.00000000E+00  0.00000000E+00
  0.00000000E+00  0.00000000E+00  0.00000000E+00
  0.00000000E+00  0.00000000E+00  0.00000000E+00
  0.00000000E+00  0.00000000E+00  0.00000000E+00
  0.00000000E+00  0.00000000E+00  0.00000000E+00
  0.00000000E+00  0.00000000E+00  0.00000000E+00
  0.00000000E+00  0.00000000E+00  0.00000000E+00
  0.00000000E+00  0.00000000E+00  0.00000000E+00
  0.00000000E+00  0.00000000E+00  0.00000000E+00
  0.00000000E+00  0.00000000E+00  0.00000000E+00
  0.00000000E+00  0.00000000E+00  0.00000000E+00
  0.00000000E+00  0.00000000E+00  0.00000000E+00
  0.00000000E+00  0.00000000E+00  0.00000000E+00
  0.00000000E+00  0.00000000E+00  0.00000000E+00
  0.00000000E+00  0.00000000E+00  0.00000000E+00
  0.00000000E+00  0.00000000E+00  0.00000000E+00
  0.00000000E+00  0.00000000E+00  0.00000000E+00
  0.00000000E+00  0.00000000E+00  0.00000000E+00
  0.00000000E+00  0.00000000E+00  0.00000000E+00
  0.00000000E+00  0.00000000E+00  0.00000000E+00
  0.00000000E+00  0.00000000E+00  0.00000000E+00
  0.00000000E+00  0.00000000E+00  0.00000000E+00
  0.00000000E+00  0.00000000E+00  0.00000000E+00
  0.00000000E+00  0.00000000E+00  0.00000000E+00
  0.00000000E+00  0.00000000E+00  0.00000000E+00
  0.00000000E+00  0.00000000E+00  0.00000000E+00
  0.00000000E+00  0.00000000E+00  0.00000000E+00
  0.00000000E+00  0.00000000E+00  0.00000000E+00
  0.00000000E+00  0.00000000E+00  0.00000000E+00
  0.00000000E+00  0.00000000E+00  0.00000000E+00
  0.00000000E+00  0.00000000E+00  0.00000000E+00
  0.00000000E+00  0.00000000E+00  0.00000000E+00
  0.00000000E+00  0.00000000E+00  0.00000000E+00
  0.00000000E+00  0.00000000E+00  0.00000000E+00
  0.00000000E+00  0.00000000E+00  0.00000000E+00
  0.00000000E+00  0.00000000E+00  0.00000000E+00
  0.00000000E+00  0.00000000E+00  0.00000000E+00
  0.00000000E+00  0.00000000E+00  0.00000000E+00
  0.00000000E+00  0.00000000E+00  0.00000000E+00
  0.00000000E+00  0.00000000E+00  0.00000000E+00
  0.00000000E+00  0.00000000E+00  0.00000000E+00
  0.00000000E+00  0.00000000E+00  0.00000000E+00
  0.00000000E+00  0.00000000E+00  0.00000000E+00
  0.00000000E+00  0.00000000E+00  0.00000000E+00
  0.00000000E+00  0.00000000E+00  0.00000000E+00
  0.00000000E+00  0.00000000E+00  0.00000000E+00
  0.00000000E+00  0.00000000E+00  0.00000000E+00
  0.00000000E+00  0.00000000E+00  0.00000000E+00
  0.00000000E+00  0.00000000E+00  0.00000000E+00
  0.00000000E+00  0.00000000E+00  0.00000000E+00
  0.00000000E+00  0.00000000E+00  0.00000000E+00
  0.00000000E+00  0.00000000E+00  0.00000000E+00
  0.00000000E+00  0.00000000E+00  0.00000000E+00
  0.00000000E+00  0.00000000E+00  0.00000000E+00
  0.00000000E+00  0.00000000E+00  0.00000000E+00
  0.00000000E+00  0.00000000E+00  0.00000000E+00
  0.00000000E+00  0.00000000E+00  0.00000000E+00
  0.00000000E+00  0.00000000E+00  0.00000000E+00
  0.00000000E+00  0.00000000E+00  0.00000000E+00
  0.00000000E+00  0.00000000E+00  0.00000000E+00
  0.00000000E+00  0.00000000E+00  0.00000000E+00
  0.00000000E+00  0.00000000E+00  0.00000000E+00
  0.00000000E+00  0.00000000E+00  0.00000000E+00
  0.00000000E+00  0.00000000E+00  0.00000000E+00
  0.00000000E+00  0.00000000E+00  0.00000000E+00
  0.00000000E+00  0.00000000E+00  0.00000000E+00
  0.00000000E+00  0.00000000E+00  0.00000000E+00
  0.00000000E+00  0.00000000E+00  0.00000000E+00
  0.00000000E+00  0.00000000E+00  0.00000000E+00
  0.00000000E+00  0.00000000E+00  0.00000000E+00
  0.00000000E+00  0.00000000E+00  0.00000000E+00
  0.00000000E+00  0.00000000E+00  0.00000000E+00
  0.00000000E+00  0.00000000E+00  0.00000000E+00
  0.00000000E+00  0.00000000E+00  0.00000000E+00
  0.00000000E+00  0.00000000E+00  0.00000000E+00
  0.00000000E+00  0.00000000E+00  0.00000000E+00
  0.00000000E+00  0.00000000E+00  0.00000000E+00
  0.00000000E+00  0.00000000E+00  0.00000000E+00
  0.00000000E+00  0.00000000E+00  0.00000000E+00
  0.00000000E+00  0.00000000E+00  0.00000000E+00
  0.00000000E+00  0.00000000E+00  0.00000000E+00
  0.00000000E+00  0.00000000E+00  0.00000000E+00
  0.00000000E+00  0.00000000E+00  0.00000000E+00
  0.00000000E+00  0.00000000E+00  0.00000000E+00
  0.00000000E+00  0.00000000E+00  0.00000000E+00
  0.00000000E+00  0.00000000E+00  0.00000000E+00
  0.00000000E+00  0.00000000E+00  0.00000000E+00
  0.00000000E+00  0.00000000E+00  0.00000000E+00
  0.00000000E+00  0.00000000E+00  0.00000000E+00
  0.00000000E+00  0.00000000E+00  0.00000000E+00
