Mg1 Al32                                
   1.00000000000000     
     8.0870519999999999    0.0000000000000000    0.0000000000000000
     0.0000000000000000    8.0870519999999999    0.0000000000000000
     0.0000000000000000    0.0000000000000000    8.0870519999999999
   Al   Mg
  32   1
Direct
  0.0097549681520539  0.0097549681520539 -0.0112087228371987
  0.2451658851047373  0.0277735150041935  0.2663944496775481
  0.2516615384665121  0.2516615384665121 -0.0174367096432211
  0.0277735150041935  0.2451658851047373  0.2663944496775481
  0.4877654574111449  0.0054030098997824 -0.0054215550639083
  0.7701288415138642  0.0445887793294412  0.2309207470140244
  0.7351778042789570  0.2433365383053955 -0.0299731151071981
  0.4829707202099877  0.2366236314263267  0.2433194608445262
  0.0054030098997824  0.4877654574111449 -0.0054215550639083
  0.2366236314263267  0.4829707202099877  0.2433194608445262
  0.2433365383053955  0.7351778042789570 -0.0299731151071981
  0.0445887793294412  0.7701288415138642  0.2309207470140244
  0.4872497140733312  0.4872497140733312 -0.0063852203988944
  0.7650874004699977  0.3972376475832752  0.2360417061048916
  0.7706827835978987  0.7706827835978987 -0.0455818388474266
  0.3972376475832752  0.7650874004699977  0.2360417061048916
  0.0064537454901862  0.0064537454901862  0.5157684798038488
  0.2507119332694858  0.0171427135041656  0.7487402579938272
  0.2431330400171142  0.2431330400171142  0.5218025512773516
  0.0171427135041656  0.2507119332694858  0.7487402579938272
  0.4881660194102850  0.0074858072919703  0.5128996447063576
  0.7386107669920865  0.0259426738487430  0.7542282794020868
  0.7574105412249381  0.2356344159961044  0.5182940470929801
  0.4800551891756379  0.2418514567656732  0.7579505012859913
  0.0074858072919703  0.4881660194102850  0.5128996447063576
  0.2418514567656732  0.4800551891756379  0.7579505012859913
  0.2356344159961044  0.7574105412249381  0.5182940470929801
  0.0259426738487430  0.7386107669920865  0.7542282794020868
  0.4878608377649639  0.4878608377649639  0.5139558930215056
  0.7568526406813627  0.4852039390648428  0.7625863196074726
  0.7652220730711256  0.7652220730711256  0.5890911428054232
  0.4852039390648428  0.7568526406813627  0.7625863196074726
  0.7116539716044119  0.7116539716044119  0.2780329377014126
 
  0.00000000E+00  0.00000000E+00  0.00000000E+00
  0.00000000E+00  0.00000000E+00  0.00000000E+00
  0.00000000E+00  0.00000000E+00  0.00000000E+00
  0.00000000E+00  0.00000000E+00  0.00000000E+00
  0.00000000E+00  0.00000000E+00  0.00000000E+00
  0.00000000E+00  0.00000000E+00  0.00000000E+00
  0.00000000E+00  0.00000000E+00  0.00000000E+00
  0.00000000E+00  0.00000000E+00  0.00000000E+00
  0.00000000E+00  0.00000000E+00  0.00000000E+00
  0.00000000E+00  0.00000000E+00  0.00000000E+00
  0.00000000E+00  0.00000000E+00  0.00000000E+00
  0.00000000E+00  0.00000000E+00  0.00000000E+00
  0.00000000E+00  0.00000000E+00  0.00000000E+00
  0.00000000E+00  0.00000000E+00  0.00000000E+00
  0.00000000E+00  0.00000000E+00  0.00000000E+00
  0.00000000E+00  0.00000000E+00  0.00000000E+00
  0.00000000E+00  0.00000000E+00  0.00000000E+00
  0.00000000E+00  0.00000000E+00  0.00000000E+00
  0.00000000E+00  0.00000000E+00  0.00000000E+00
  0.00000000E+00  0.00000000E+00  0.00000000E+00
  0.00000000E+00  0.00000000E+00  0.00000000E+00
  0.00000000E+00  0.00000000E+00  0.00000000E+00
  0.00000000E+00  0.00000000E+00  0.00000000E+00
  0.00000000E+00  0.00000000E+00  0.00000000E+00
  0.00000000E+00  0.00000000E+00  0.00000000E+00
  0.00000000E+00  0.00000000E+00  0.00000000E+00
  0.00000000E+00  0.00000000E+00  0.00000000E+00
  0.00000000E+00  0.00000000E+00  0.00000000E+00
  0.00000000E+00  0.00000000E+00  0.00000000E+00
  0.00000000E+00  0.00000000E+00  0.00000000E+00
  0.00000000E+00  0.00000000E+00  0.00000000E+00
  0.00000000E+00  0.00000000E+00  0.00000000E+00
  0.00000000E+00  0.00000000E+00  0.00000000E+00
