Al3
1.0
4.086266 0.000000 0.000000
0.000000 4.086266 0.000000
0.000000 0.000000 4.086266
Al
3
direct
0.000000 0.000000 0.000000 Al
0.000000 0.500000 0.500000 Al
0.500000 0.000000 0.500000 Al
