POSCAR_01:Al                            
   1.00000000000000     
    10.9063935957000009    0.0000000000000000    0.0000000000000000
     0.0000000000000000   10.9063935957000009    0.0000000000000000
     0.0000000000000000    0.0000000000000000   10.9063935957000009
   Al   Mg
     1   106
Direct
  0.0824069161349499  0.9999072333291821  0.0825137496753428
  0.0031760122319469  0.0000249197623958  0.3242355804885264
  0.0001644953642597  0.0000043983133367  0.6678183178709318
  0.9975136814958887  0.3384224751714839  0.9974696429947940
  0.9985846836177927  0.3368349011629732  0.3361140293291527
  0.9989045955199103  0.3315223110777055  0.6653575548924238
  0.9975223256629278  0.6615571035212895  0.9974746739364519
  0.9985863527320049  0.6631193647543938  0.3361314616622835
  0.9988938387350856  0.6685117400597349  0.6653751162373922
  0.3243325351885460  0.0000232382857561  0.0030855218081527
  0.3295684713238529  0.0000130512734842  0.3296104147700021
  0.3309887382146073  0.9999907238280130  0.6673164647848608
  0.3360981506263414  0.3368954700354863  0.9986031370583106
  0.3329237779306879  0.3321004237150902  0.3329664383345303
  0.3333804358935737  0.3324029540773807  0.6645952716715016
  0.3361293786047383  0.6630554650877585  0.9986036185342400
  0.3328770835217156  0.6679218382460519  0.3329263290681510
  0.3333535037653874  0.6676167755288063  0.6645968450791173
  0.6677183402216968  0.0000092466204364  0.0001556687207724
  0.6672733737549450  0.9999909032099907  0.3309827605374522
  0.6662380456995010  0.9999605600601882  0.6662572484884848
  0.6653517619131790  0.3315206689798131  0.9989630628432735
  0.6646641615376723  0.3323129965284366  0.3333714066310947
  0.6658810213089481  0.3317294225152025  0.6658372955801539
  0.6653591823508833  0.6685160610696173  0.9989592375405678
  0.6646717794385069  0.6677084606703261  0.3333441309741332
  0.6658925408894873  0.6682705137980562  0.6658467594979527
  0.9966743644856351  0.1818487009827834  0.1684176035330438
  0.9997014336757672  0.1649240675605483  0.4974223786729297
  0.9999100224519140  0.1660079762696114  0.8358409604247186
  0.9980999102602723  0.4999843991435782  0.1670456454691234
  0.9985020792663946  0.5000095826027504  0.5019534517418407
  0.9981079400762525  0.4999860359834543  0.8294765522437828
  0.9966125645267994  0.8180648124893537  0.1684776512242436
  0.9997042865407622  0.8350967376527976  0.4973939997594030
  0.9999346771314919  0.8340326062191892  0.8358954808521872
  0.3292789372269098  0.1660640856593929  0.1652262217066678
  0.3315252224912797  0.1650253532324655  0.4984638984018801
  0.3324897407386231  0.1672508190337325  0.8326130393498730
  0.3356674980783367  0.4999861929074356  0.1670355063970987
  0.3334450039967436  0.5000239063656835  0.4990480605699616
  0.3348751787067812  0.4999897252996135  0.8302020751499697
  0.3292285375739468  0.8339813421529456  0.1652009975881796
  0.3314912369563601  0.8349700490466248  0.4984422725301485
  0.3324929307555351  0.8327468090429306  0.8325948558659704
  0.6676946274079611  0.1649462901284124  0.1654453213498215
  0.6659678731712972  0.1650463030626810  0.4990681881712220
  0.6665819006588904  0.1649399358206480  0.8335428690474842
  0.6631440413210967  0.5000041099137036  0.1665350696066596
  0.6651299145693841  0.5000173565953503  0.4999420843045144
  0.6660318805426186  0.5000164317818161  0.8315913667491230
  0.6677129109290689  0.8350810122244923  0.1654208698483259
  0.6659605060593350  0.8349030860377198  0.4990560897835863
  0.6665967807211644  0.8350523557932092  0.8335658161444073
  0.1650242491212452  0.0000093761550559  0.4974339599430380
  0.1621582913165085  0.0000190335442838  0.8408126119793096
  0.1676752468112710  0.3384165199852944  0.1676386846323723
  0.1660919441036697  0.3315218729122691  0.4997665225683434
  0.1665541705677001  0.3368813517196187  0.8289837252267205
  0.1676664861273238  0.6615600400144004  0.1676329712869133
  0.1660714886788170  0.6685155408153136  0.4997575386933306
  0.1665438710389324  0.6630746305627042  0.8289604307760499
  0.4973506996865780  0.0000076423956372  0.1650295908018720
  0.4986570540750463  0.9999666132399128  0.4986719138248006
  0.4977222954119327  0.9999903283424700  0.8341208563770479
  0.4997645963972630  0.3315362892842444  0.1661679455830551
  0.4992492780359896  0.3317907784917011  0.4991986917183056
  0.5004614888043832  0.3323782681266536  0.8316857529531561
  0.4997525636695386  0.6684992321749945  0.1661550203769835
  0.4992258810369847  0.6682128685098618  0.4991717599004488
  0.5004585416850205  0.6676357942018072  0.8316933259131503
  0.8408536376258624  0.0000252180438309  0.1620665032835973
  0.8341420967516413  0.9999872431138712  0.4977674263474370
  0.8354300927843994  0.0000137791360117  0.8354821710920035
  0.8289753185496451  0.3368341585506158  0.1665526561638941
  0.8317043291390362  0.3322885100097395  0.5004130616062383
  0.8321436688191355  0.3320484782826085  0.8321823255811012
  0.8289535187850561  0.6631214300758899  0.1665351986513883
  0.8317112053705173  0.6677323825966823  0.5004068987846750
  0.8321750058099937  0.6679660650983834  0.8322155975367025
  0.1684709874954322  0.1817375619388102  0.9966341569720356
  0.1652280820759344  0.1660688956653402  0.3293089782903280
  0.1654412054233205  0.1650058824772387  0.6677419903928765
  0.1670540393877289  0.4999905640027436  0.9980975507257526
  0.1669465962416652  0.4999856210441465  0.3356528170195077
  0.1664454199078875  0.5000021733387854  0.6630935937755140
  0.1685398718815065  0.8181750149083342  0.9965737343120438
  0.1651965290653905  0.8339833120785940  0.3292594064390073
  0.1654158683399629  0.8350148467209664  0.6677562884385537
  0.4973807195279960  0.1650102953792114  0.9997137052845702
  0.4984125407517084  0.1650183205985201  0.3315469018569885
  0.4990837923340337  0.1650969468596344  0.6659359523145980
  0.5020016798549420  0.4999959799362514  0.9985910062640144
  0.4991069884363668  0.5000247035336329  0.3334830281294074
  0.5000369059324541  0.5000175964536666  0.6650321730304043
  0.4973470240093505  0.8350170044253602  0.9997161170091076
  0.4983880811594119  0.8349750648117364  0.3315143444828408
  0.4990750367992618  0.8348568185315912  0.6659249625275123
  0.8358112972694656  0.1660096485268951  0.9999073319343381
  0.8326591829269319  0.1671185035408129  0.3324340311230216
  0.8335311281678628  0.1649247185383445  0.6666383391938524
  0.8294844890129269  0.4999896854035271  0.9981698935123688
  0.8302542393387995  0.4999927634807122  0.3348290889762353
  0.8315754251930514  0.5000146548261668  0.6659760432744122
  0.8358604523959343  0.8340401533513813  0.9999280935402979
  0.8326507480265590  0.8328866488616598  0.3324331431629943
  0.8335545255931791  0.8350698704034016  0.6666611823768136
 
  0.00000000E+00  0.00000000E+00  0.00000000E+00
  0.00000000E+00  0.00000000E+00  0.00000000E+00
  0.00000000E+00  0.00000000E+00  0.00000000E+00
  0.00000000E+00  0.00000000E+00  0.00000000E+00
  0.00000000E+00  0.00000000E+00  0.00000000E+00
  0.00000000E+00  0.00000000E+00  0.00000000E+00
  0.00000000E+00  0.00000000E+00  0.00000000E+00
  0.00000000E+00  0.00000000E+00  0.00000000E+00
  0.00000000E+00  0.00000000E+00  0.00000000E+00
  0.00000000E+00  0.00000000E+00  0.00000000E+00
  0.00000000E+00  0.00000000E+00  0.00000000E+00
  0.00000000E+00  0.00000000E+00  0.00000000E+00
  0.00000000E+00  0.00000000E+00  0.00000000E+00
  0.00000000E+00  0.00000000E+00  0.00000000E+00
  0.00000000E+00  0.00000000E+00  0.00000000E+00
  0.00000000E+00  0.00000000E+00  0.00000000E+00
  0.00000000E+00  0.00000000E+00  0.00000000E+00
  0.00000000E+00  0.00000000E+00  0.00000000E+00
  0.00000000E+00  0.00000000E+00  0.00000000E+00
  0.00000000E+00  0.00000000E+00  0.00000000E+00
  0.00000000E+00  0.00000000E+00  0.00000000E+00
  0.00000000E+00  0.00000000E+00  0.00000000E+00
  0.00000000E+00  0.00000000E+00  0.00000000E+00
  0.00000000E+00  0.00000000E+00  0.00000000E+00
  0.00000000E+00  0.00000000E+00  0.00000000E+00
  0.00000000E+00  0.00000000E+00  0.00000000E+00
  0.00000000E+00  0.00000000E+00  0.00000000E+00
  0.00000000E+00  0.00000000E+00  0.00000000E+00
  0.00000000E+00  0.00000000E+00  0.00000000E+00
  0.00000000E+00  0.00000000E+00  0.00000000E+00
  0.00000000E+00  0.00000000E+00  0.00000000E+00
  0.00000000E+00  0.00000000E+00  0.00000000E+00
  0.00000000E+00  0.00000000E+00  0.00000000E+00
  0.00000000E+00  0.00000000E+00  0.00000000E+00
  0.00000000E+00  0.00000000E+00  0.00000000E+00
  0.00000000E+00  0.00000000E+00  0.00000000E+00
  0.00000000E+00  0.00000000E+00  0.00000000E+00
  0.00000000E+00  0.00000000E+00  0.00000000E+00
  0.00000000E+00  0.00000000E+00  0.00000000E+00
  0.00000000E+00  0.00000000E+00  0.00000000E+00
  0.00000000E+00  0.00000000E+00  0.00000000E+00
  0.00000000E+00  0.00000000E+00  0.00000000E+00
  0.00000000E+00  0.00000000E+00  0.00000000E+00
  0.00000000E+00  0.00000000E+00  0.00000000E+00
  0.00000000E+00  0.00000000E+00  0.00000000E+00
  0.00000000E+00  0.00000000E+00  0.00000000E+00
  0.00000000E+00  0.00000000E+00  0.00000000E+00
  0.00000000E+00  0.00000000E+00  0.00000000E+00
  0.00000000E+00  0.00000000E+00  0.00000000E+00
  0.00000000E+00  0.00000000E+00  0.00000000E+00
  0.00000000E+00  0.00000000E+00  0.00000000E+00
  0.00000000E+00  0.00000000E+00  0.00000000E+00
  0.00000000E+00  0.00000000E+00  0.00000000E+00
  0.00000000E+00  0.00000000E+00  0.00000000E+00
  0.00000000E+00  0.00000000E+00  0.00000000E+00
  0.00000000E+00  0.00000000E+00  0.00000000E+00
  0.00000000E+00  0.00000000E+00  0.00000000E+00
  0.00000000E+00  0.00000000E+00  0.00000000E+00
  0.00000000E+00  0.00000000E+00  0.00000000E+00
  0.00000000E+00  0.00000000E+00  0.00000000E+00
  0.00000000E+00  0.00000000E+00  0.00000000E+00
  0.00000000E+00  0.00000000E+00  0.00000000E+00
  0.00000000E+00  0.00000000E+00  0.00000000E+00
  0.00000000E+00  0.00000000E+00  0.00000000E+00
  0.00000000E+00  0.00000000E+00  0.00000000E+00
  0.00000000E+00  0.00000000E+00  0.00000000E+00
  0.00000000E+00  0.00000000E+00  0.00000000E+00
  0.00000000E+00  0.00000000E+00  0.00000000E+00
  0.00000000E+00  0.00000000E+00  0.00000000E+00
  0.00000000E+00  0.00000000E+00  0.00000000E+00
  0.00000000E+00  0.00000000E+00  0.00000000E+00
  0.00000000E+00  0.00000000E+00  0.00000000E+00
  0.00000000E+00  0.00000000E+00  0.00000000E+00
  0.00000000E+00  0.00000000E+00  0.00000000E+00
  0.00000000E+00  0.00000000E+00  0.00000000E+00
  0.00000000E+00  0.00000000E+00  0.00000000E+00
  0.00000000E+00  0.00000000E+00  0.00000000E+00
  0.00000000E+00  0.00000000E+00  0.00000000E+00
  0.00000000E+00  0.00000000E+00  0.00000000E+00
  0.00000000E+00  0.00000000E+00  0.00000000E+00
  0.00000000E+00  0.00000000E+00  0.00000000E+00
  0.00000000E+00  0.00000000E+00  0.00000000E+00
  0.00000000E+00  0.00000000E+00  0.00000000E+00
  0.00000000E+00  0.00000000E+00  0.00000000E+00
  0.00000000E+00  0.00000000E+00  0.00000000E+00
  0.00000000E+00  0.00000000E+00  0.00000000E+00
  0.00000000E+00  0.00000000E+00  0.00000000E+00
  0.00000000E+00  0.00000000E+00  0.00000000E+00
  0.00000000E+00  0.00000000E+00  0.00000000E+00
  0.00000000E+00  0.00000000E+00  0.00000000E+00
  0.00000000E+00  0.00000000E+00  0.00000000E+00
  0.00000000E+00  0.00000000E+00  0.00000000E+00
  0.00000000E+00  0.00000000E+00  0.00000000E+00
  0.00000000E+00  0.00000000E+00  0.00000000E+00
  0.00000000E+00  0.00000000E+00  0.00000000E+00
  0.00000000E+00  0.00000000E+00  0.00000000E+00
  0.00000000E+00  0.00000000E+00  0.00000000E+00
  0.00000000E+00  0.00000000E+00  0.00000000E+00
  0.00000000E+00  0.00000000E+00  0.00000000E+00
  0.00000000E+00  0.00000000E+00  0.00000000E+00
  0.00000000E+00  0.00000000E+00  0.00000000E+00
  0.00000000E+00  0.00000000E+00  0.00000000E+00
  0.00000000E+00  0.00000000E+00  0.00000000E+00
  0.00000000E+00  0.00000000E+00  0.00000000E+00
  0.00000000E+00  0.00000000E+00  0.00000000E+00
  0.00000000E+00  0.00000000E+00  0.00000000E+00
  0.00000000E+00  0.00000000E+00  0.00000000E+00
