IBRION=3
MAGMOM=8*3 8*5 24*2
ENCUT=551.8815
