Mg1 Al32                                
   1.00000000000000     
     8.0870400000000000    0.0000000000000000    0.0000000000000000
     0.0000000000000000    8.0870400000000000    0.0000000000000000
     0.0000000000000000    0.0000000000000000    8.0870400000000000
   Al   Mg
  32   1
Direct
  0.0000000000000000  0.0000000000000000  0.0057390222013957
  0.2442609777986043  0.0000000000000000  0.2500000000000000
  0.2550968654024087  0.2550968654024087 -0.0050968654024088
  0.0000000000000000  0.2442609777986043  0.2500000000000000
  0.5000000000000000  0.0000000000000000  0.0169880077631430
  0.7557390222013957  0.0000000000000000  0.2500000000000000
  0.7449031345975982  0.2550968654024087 -0.0050968654024088
  0.5000000000000000  0.2330119922368570  0.2500000000000000
  0.0000000000000000  0.5000000000000000  0.0169880077631430
  0.2330119922368570  0.5000000000000000  0.2500000000000000
  0.2550968654024087  0.7449031345975982 -0.0050968654024088
  0.0000000000000000  0.7557390222013957  0.2500000000000000
  0.5000000000000000  0.5000000000000000  0.0675026091532522
  0.7669880077631429  0.5000000000000000  0.2500000000000000
  0.7449031345975982  0.7449031345975982 -0.0050968654024088
  0.5000000000000000  0.7669880077631429  0.2500000000000000
  0.0000000000000000  0.0000000000000000  0.4942609777986042
  0.2330119922368570  0.0000000000000000  0.7500000000000000
  0.2550968654024087  0.2550968654024087  0.5050968654024089
  0.0000000000000000  0.2330119922368570  0.7500000000000000
  0.5000000000000000  0.0000000000000000  0.4830119922368569
  0.7669880077631429  0.0000000000000000  0.7500000000000000
  0.7449031345975982  0.2550968654024087  0.5050968654024089
  0.5000000000000000  0.1824973908467478  0.7500000000000000
  0.0000000000000000  0.5000000000000000  0.4830119922368569
  0.1824973908467478  0.5000000000000000  0.7500000000000000
  0.2550968654024087  0.7449031345975982  0.5050968654024089
  0.0000000000000000  0.7669880077631429  0.7500000000000000
  0.5000000000000000  0.5000000000000000  0.4324973908467478
  0.8175026091532520  0.5000000000000000  0.7500000000000000
  0.7449031345975982  0.7449031345975982  0.5050968654024089
  0.5000000000000000  0.8175026091532520  0.7500000000000000
  0.5000000000000000  0.5000000000000000  0.7500000000000000
 
  0.00000000E+00  0.00000000E+00  0.00000000E+00
  0.00000000E+00  0.00000000E+00  0.00000000E+00
  0.00000000E+00  0.00000000E+00  0.00000000E+00
  0.00000000E+00  0.00000000E+00  0.00000000E+00
  0.00000000E+00  0.00000000E+00  0.00000000E+00
  0.00000000E+00  0.00000000E+00  0.00000000E+00
  0.00000000E+00  0.00000000E+00  0.00000000E+00
  0.00000000E+00  0.00000000E+00  0.00000000E+00
  0.00000000E+00  0.00000000E+00  0.00000000E+00
  0.00000000E+00  0.00000000E+00  0.00000000E+00
  0.00000000E+00  0.00000000E+00  0.00000000E+00
  0.00000000E+00  0.00000000E+00  0.00000000E+00
  0.00000000E+00  0.00000000E+00  0.00000000E+00
  0.00000000E+00  0.00000000E+00  0.00000000E+00
  0.00000000E+00  0.00000000E+00  0.00000000E+00
  0.00000000E+00  0.00000000E+00  0.00000000E+00
  0.00000000E+00  0.00000000E+00  0.00000000E+00
  0.00000000E+00  0.00000000E+00  0.00000000E+00
  0.00000000E+00  0.00000000E+00  0.00000000E+00
  0.00000000E+00  0.00000000E+00  0.00000000E+00
  0.00000000E+00  0.00000000E+00  0.00000000E+00
  0.00000000E+00  0.00000000E+00  0.00000000E+00
  0.00000000E+00  0.00000000E+00  0.00000000E+00
  0.00000000E+00  0.00000000E+00  0.00000000E+00
  0.00000000E+00  0.00000000E+00  0.00000000E+00
  0.00000000E+00  0.00000000E+00  0.00000000E+00
  0.00000000E+00  0.00000000E+00  0.00000000E+00
  0.00000000E+00  0.00000000E+00  0.00000000E+00
  0.00000000E+00  0.00000000E+00  0.00000000E+00
  0.00000000E+00  0.00000000E+00  0.00000000E+00
  0.00000000E+00  0.00000000E+00  0.00000000E+00
  0.00000000E+00  0.00000000E+00  0.00000000E+00
  0.00000000E+00  0.00000000E+00  0.00000000E+00
