Mg1 Al32
1.0
8.087040 0.000000 0.000000
0.000000 8.087040 0.000000
0.000000 0.000000 8.087040
Al Mg
32 1
direct
0.000000 0.000000 0.021387 Al
0.228613 0.000000 0.250000 Al
0.240551 0.240551 0.009449 Al
0.000000 0.228613 0.250000 Al
0.500000 0.000000 0.025645 Al
0.771387 0.000000 0.250000 Al
0.759449 0.240551 0.009449 Al
0.500000 0.224355 0.250000 Al
0.000000 0.500000 0.025645 Al
0.224355 0.500000 0.250000 Al
0.240551 0.759449 0.009449 Al
0.000000 0.771387 0.250000 Al
0.500000 0.500000 0.083016 Al
0.775645 0.500000 0.250000 Al
0.759449 0.759449 0.009449 Al
0.500000 0.775645 0.250000 Al
0.000000 0.000000 0.478613 Al
0.224355 0.000000 0.750000 Al
0.240551 0.240551 0.490551 Al
0.000000 0.224355 0.750000 Al
0.500000 0.000000 0.474355 Al
0.775645 0.000000 0.750000 Al
0.759449 0.240551 0.490551 Al
0.500000 0.166984 0.750000 Al
0.000000 0.500000 0.474355 Al
0.166984 0.500000 0.750000 Al
0.240551 0.759449 0.490551 Al
0.000000 0.775645 0.750000 Al
0.500000 0.500000 0.416984 Al
0.833016 0.500000 0.750000 Al
0.759449 0.759449 0.490551 Al
0.500000 0.833016 0.750000 Al
0.500000 0.500000 0.750000 Mg

0.000000 0.000000 0.000000
0.000000 0.000000 0.000000
0.000000 0.000000 0.000000
0.000000 0.000000 0.000000
0.000000 0.000000 0.000000
0.000000 0.000000 0.000000
0.000000 0.000000 0.000000
0.000000 0.000000 0.000000
0.000000 0.000000 0.000000
0.000000 0.000000 0.000000
0.000000 0.000000 0.000000
0.000000 0.000000 0.000000
0.000000 0.000000 0.000000
0.000000 0.000000 0.000000
0.000000 0.000000 0.000000
0.000000 0.000000 0.000000
0.000000 0.000000 0.000000
0.000000 0.000000 0.000000
0.000000 0.000000 0.000000
0.000000 0.000000 0.000000
0.000000 0.000000 0.000000
0.000000 0.000000 0.000000
0.000000 0.000000 0.000000
0.000000 0.000000 0.000000
0.000000 0.000000 0.000000
0.000000 0.000000 0.000000
0.000000 0.000000 0.000000
0.000000 0.000000 0.000000
0.000000 0.000000 0.000000
0.000000 0.000000 0.000000
0.000000 0.000000 0.000000
0.000000 0.000000 0.000000
0.000000 0.000000 0.000000
