Mg1 Al30                                
   1.00000000000000     
     8.0870540000000002    0.0000000000000000    0.0000000000000000
     0.0000000000000000    8.0870540000000002    0.0000000000000000
     0.0000000000000000    0.0000000000000000    8.0870540000000002
   Mg   Al
   1  30
Direct
  0.4891967017919719  0.5000000000000000  0.4891967017919719
  0.9989541639370068  0.0000000000000000  0.9989541639370068
  0.2492105192844478  0.0000000000000000  0.2492105192844478
  0.2515374521805115  0.2544533397137686  0.0054579337940820
  0.0054579337940820  0.2544533397137686  0.2515374521805115
  0.5001083925549461  0.0000000000000000  0.9966363368681027
  0.7538268527440189  0.0000000000000000  0.2503704218981775
  0.7509502534344569  0.2490890747223811  0.9979386854402542
  0.5001858389711754  0.2475626780082514  0.2454719134268660
  0.0043837992918565  0.5000000000000000  0.0043837992918565
  0.2515374521805115  0.7455466602862313  0.0054579337940820
  0.0054579337940820  0.7455466602862313  0.2515374521805115
  0.4987173318473878  0.5000000000000000  0.0031634355206763
  0.7525580473172833  0.5000000000000000  0.2475597602405024
  0.7509502534344569  0.7509109252776188  0.9979386854402542
  0.5001858389711754  0.7524373219917486  0.2454719134268660
  0.9966363368681027  0.0000000000000000  0.5001083925549461
  0.2503704218981775  0.0000000000000000  0.7538268527440189
  0.2454719134268660  0.2475626780082514  0.5001858389711754
  0.9979386854402542  0.2490890747223811  0.7509502534344569
  0.5017569531788963  0.0000000000000000  0.5017569531788963
  0.7504119085629565  0.0000000000000000  0.7504119085629565
  0.7496186427106402  0.2496584493179846  0.4999640318498280
  0.4999640318498280  0.2496584493179846  0.7496186427106402
  0.0031634355206763  0.5000000000000000  0.4987173318473878
  0.2475597602405024  0.5000000000000000  0.7525580473172833
  0.2454719134268660  0.7524373219917486  0.5001858389711754
  0.9979386854402542  0.7509109252776188  0.7509502534344569
  0.7508968713461313  0.5000000000000000  0.7508968713461313
  0.7496186427106402  0.7503415506820155  0.4999640318498280
  0.4999640318498280  0.7503415506820155  0.7496186427106402
 
  0.00000000E+00  0.00000000E+00  0.00000000E+00
  0.00000000E+00  0.00000000E+00  0.00000000E+00
  0.00000000E+00  0.00000000E+00  0.00000000E+00
  0.00000000E+00  0.00000000E+00  0.00000000E+00
  0.00000000E+00  0.00000000E+00  0.00000000E+00
  0.00000000E+00  0.00000000E+00  0.00000000E+00
  0.00000000E+00  0.00000000E+00  0.00000000E+00
  0.00000000E+00  0.00000000E+00  0.00000000E+00
  0.00000000E+00  0.00000000E+00  0.00000000E+00
  0.00000000E+00  0.00000000E+00  0.00000000E+00
  0.00000000E+00  0.00000000E+00  0.00000000E+00
  0.00000000E+00  0.00000000E+00  0.00000000E+00
  0.00000000E+00  0.00000000E+00  0.00000000E+00
  0.00000000E+00  0.00000000E+00  0.00000000E+00
  0.00000000E+00  0.00000000E+00  0.00000000E+00
  0.00000000E+00  0.00000000E+00  0.00000000E+00
  0.00000000E+00  0.00000000E+00  0.00000000E+00
  0.00000000E+00  0.00000000E+00  0.00000000E+00
  0.00000000E+00  0.00000000E+00  0.00000000E+00
  0.00000000E+00  0.00000000E+00  0.00000000E+00
  0.00000000E+00  0.00000000E+00  0.00000000E+00
  0.00000000E+00  0.00000000E+00  0.00000000E+00
  0.00000000E+00  0.00000000E+00  0.00000000E+00
  0.00000000E+00  0.00000000E+00  0.00000000E+00
  0.00000000E+00  0.00000000E+00  0.00000000E+00
  0.00000000E+00  0.00000000E+00  0.00000000E+00
  0.00000000E+00  0.00000000E+00  0.00000000E+00
  0.00000000E+00  0.00000000E+00  0.00000000E+00
  0.00000000E+00  0.00000000E+00  0.00000000E+00
  0.00000000E+00  0.00000000E+00  0.00000000E+00
  0.00000000E+00  0.00000000E+00  0.00000000E+00
