Mg1 Al30
1.0
8.087054 0.000000 0.000000
0.000000 8.087054 0.000000
0.000000 0.000000 8.087054
Mg Al
1 30
direct
0.494160 0.500000 0.494160 Mg
-0.002157 0.000000 -0.002157 Al
0.248118 0.000000 0.248118 Al
0.244713 0.242417 -0.005247 Al
-0.005247 0.242417 0.244713 Al
0.503294 0.000000 -0.004362 Al
0.755225 0.000000 0.246135 Al
0.754702 0.243480 -0.002692 Al
0.508179 0.228620 0.238798 Al
-0.006172 0.500000 -0.006172 Al
0.244713 0.757583 -0.005247 Al
-0.005247 0.757583 0.244713 Al
0.510798 0.500000 -0.006258 Al
0.761434 0.500000 0.236025 Al
0.754702 0.756520 -0.002692 Al
0.508179 0.771380 0.238798 Al
-0.004362 0.000000 0.503294 Al
0.246135 0.000000 0.755225 Al
0.238798 0.228620 0.508179 Al
-0.002692 0.243480 0.754702 Al
0.499617 0.000000 0.499617 Al
0.755534 0.000000 0.755534 Al
0.759097 0.239786 0.501743 Al
0.501743 0.239786 0.759097 Al
-0.006258 0.500000 0.510798 Al
0.236025 0.500000 0.761434 Al
0.238798 0.771380 0.508179 Al
-0.002692 0.756520 0.754702 Al
0.760024 0.500000 0.760024 Al
0.759097 0.760214 0.501743 Al
0.501743 0.760214 0.759097 Al

0.000000 0.000000 0.000000
0.000000 0.000000 0.000000
0.000000 0.000000 0.000000
0.000000 0.000000 0.000000
0.000000 0.000000 0.000000
0.000000 0.000000 0.000000
0.000000 0.000000 0.000000
0.000000 0.000000 0.000000
0.000000 0.000000 0.000000
0.000000 0.000000 0.000000
0.000000 0.000000 0.000000
0.000000 0.000000 0.000000
0.000000 0.000000 0.000000
0.000000 0.000000 0.000000
0.000000 0.000000 0.000000
0.000000 0.000000 0.000000
0.000000 0.000000 0.000000
0.000000 0.000000 0.000000
0.000000 0.000000 0.000000
0.000000 0.000000 0.000000
0.000000 0.000000 0.000000
0.000000 0.000000 0.000000
0.000000 0.000000 0.000000
0.000000 0.000000 0.000000
0.000000 0.000000 0.000000
0.000000 0.000000 0.000000
0.000000 0.000000 0.000000
0.000000 0.000000 0.000000
0.000000 0.000000 0.000000
0.000000 0.000000 0.000000
0.000000 0.000000 0.000000
