Ga3 Bi1 As3                             
   1.00000000000000     
     5.6265999999999998    0.0000000000000000    0.0000000000000000
     0.0000000000000000    5.6265999999999998    0.0000000000000000
     0.0000000000000000    0.0000000000000000    5.6265999999999998
   Ga   Bi   As
   3   1   3
Direct
  0.5205380000000019  0.5205380000000019  0.9892859999999999
  0.9892859999999999  0.5205380000000019  0.5205380000000019
  0.5205380000000019  0.9892859999999999  0.5205380000000019
  0.1671469999999999  0.1671469999999999  0.1671469999999999
  0.7806849999999983  0.7806849999999983  0.2411219999999972
  0.2411219999999972  0.7806849999999983  0.7806849999999983
  0.7806849999999983  0.2411219999999972  0.7806849999999983
 
  0.00000000E+00  0.00000000E+00  0.00000000E+00
  0.00000000E+00  0.00000000E+00  0.00000000E+00
  0.00000000E+00  0.00000000E+00  0.00000000E+00
  0.00000000E+00  0.00000000E+00  0.00000000E+00
  0.00000000E+00  0.00000000E+00  0.00000000E+00
  0.00000000E+00  0.00000000E+00  0.00000000E+00
  0.00000000E+00  0.00000000E+00  0.00000000E+00
