ENCUT = 313
IBRION = -1
ISPIN = 2
LCHARG = False
LWAVE = False
NELECT = 69.0
NSW = 0
