ENCUT = 360.6555
IBRION = -1
ISIF = 2
ISMEAR = 1
LCHARG = False
LWAVE = False
NSW = 0
PREC = Accurate
SIGMA = 0.2
