POSCAR_01:endpoint 1                              
1.0000000000
8.1812518934 -0.0001622712 -0.1119711403
-0.0001406435 8.1352084486 0.0001473972
-0.1119715261 0.0001839519 8.1809562684
8 8 23 
D
0.0263793884 0.0013561328 0.9898511175
0.0162254966 0.9971064700 0.4776281177
0.9703941983 0.5018635525 0.0246930747
0.9797990003 0.5004850219 0.5398742789
0.5145010267 0.0036227421 0.9795842471
0.5280902396 0.9994411789 0.4909831776
0.4808924915 0.5031462638 0.0372436619
0.4640475264 0.5017743680 0.5260779179
0.2469483144 0.2488637662 0.2560957406
0.2474504669 0.2497333171 0.7572813071
0.2475136461 0.7500477486 0.2573402299
0.2473676666 0.7505006088 0.7588913184
0.7523889410 0.2467887424 0.2591992190
0.7480495620 0.2476565664 0.7556355299
0.7482660601 0.7485916435 0.2590434981
0.7459789805 0.7490829563 0.7586298472
0.2894042862 0.1920871724 0.0087367156
-0.0018086230 0.1957581361 0.2148753577
0.2822339477 0.0002835062 0.3331372791
0.2064226825 0.3088280963 0.5092198421
0.9958028039 0.3071434291 0.8043209192
0.1720737023 0.9999844976 0.7245900180
0.2912572183 0.8078943014 0.0087914632
0.9978708025 0.8091341106 0.2139469722
0.2163613342 0.5001428037 0.1911387098
0.1994011496 0.6945529708 0.5087893732
0.9960301085 0.6924697773 0.8019913402
0.3145957746 0.5000127645 0.7940423479
0.5992245026 0.3098215139 0.1522117184
0.6759709319 0.0002433487 0.2246983634
0.7907036292 0.1953226540 0.5078394223
0.4967812231 0.1916387566 0.7165746926
0.7800954426 0.9999489382 0.8302060506
0.7032318685 0.6915076500 0.0086263951
0.4979367167 0.6932317467 0.3065540108
0.8197143657 0.5000739118 0.2903386980
0.7944910342 0.8065850443 0.5084905086
0.4962503694 0.8051590239 0.7115989653
0.7107381889 0.4999728317 0.6858781813
