Al31                                    
   1.00000000000000     
     8.0870519999999999    0.0000000000000000    0.0000000000000000
     0.0000000000000000    8.0870519999999999    0.0000000000000000
     0.0000000000000000    0.0000000000000000    8.0870519999999999
   Al
  31
Direct
  0.9933829335857248  0.0000000000000000  0.9933829335857248
  0.2496206779527908  0.0000000000000000  0.2496206779527908
  0.2491496585866042  0.2491862006101693  0.0003384181946386
  0.0003384181946386  0.2491862006101693  0.2491496585866042
  0.5049474487355913  0.0000000000000000  0.9972879175779110
  0.7527110782622767  0.0000000000000000  0.2450535554242207
  0.7487434394751618  0.2415168604089621  1.0012555563650261
  0.5086314592984971  0.2392113573923527  0.2413665164291614
  0.0024122200962086  0.5000000000000000  0.0024122200962086
  0.2491496585866042  0.7508137993898305  0.0003384181946386
  0.0003384181946386  0.7508137993898305  0.2491496585866042
  0.4984372274969792  0.5000000000000000  0.0091373217115413
  0.7408647025608004  0.5000000000000000  0.2515607482306791
  0.7487434394751618  0.7584821395910405  1.0012555563650261
  0.5086314592984971  0.7607896426076447  0.2413665164291614
  0.9972879175779110  0.0000000000000000  0.5049474487355913
  0.2450535554242207  0.0000000000000000  0.7527110782622767
  0.2413665164291614  0.2392113573923527  0.5086314592984971
  1.0012555563650261  0.2415168604089621  0.7487434394751618
  0.5003803262070212  0.0000000000000000  0.5003803262070212
  0.7566160622544629  0.0000000000000000  0.7566160622544629
  0.7496636060777029  0.2491841721780131  0.5008513455732079
  0.5008513455732079  0.2491841721780131  0.7496636060777029
  0.0091373217115413  0.5000000000000000  0.4984372274969792
  0.2515607482306791  0.5000000000000000  0.7408647025608004
  0.2413665164291614  0.7607896426076447  0.5086314592984971
  1.0012555563650261  0.7584821395910405  0.7487434394751618
  0.7475898041761332  0.5000000000000000  0.7475898041761332
  0.7496636060777029  0.7508158278219866  0.5008513455732079
  0.5008513455732079  0.7508158278219866  0.7496636060777029
  0.3749999034278052  0.5000000000000000  0.3749999034278052
 
  0.00000000E+00  0.00000000E+00  0.00000000E+00
  0.00000000E+00  0.00000000E+00  0.00000000E+00
  0.00000000E+00  0.00000000E+00  0.00000000E+00
  0.00000000E+00  0.00000000E+00  0.00000000E+00
  0.00000000E+00  0.00000000E+00  0.00000000E+00
  0.00000000E+00  0.00000000E+00  0.00000000E+00
  0.00000000E+00  0.00000000E+00  0.00000000E+00
  0.00000000E+00  0.00000000E+00  0.00000000E+00
  0.00000000E+00  0.00000000E+00  0.00000000E+00
  0.00000000E+00  0.00000000E+00  0.00000000E+00
  0.00000000E+00  0.00000000E+00  0.00000000E+00
  0.00000000E+00  0.00000000E+00  0.00000000E+00
  0.00000000E+00  0.00000000E+00  0.00000000E+00
  0.00000000E+00  0.00000000E+00  0.00000000E+00
  0.00000000E+00  0.00000000E+00  0.00000000E+00
  0.00000000E+00  0.00000000E+00  0.00000000E+00
  0.00000000E+00  0.00000000E+00  0.00000000E+00
  0.00000000E+00  0.00000000E+00  0.00000000E+00
  0.00000000E+00  0.00000000E+00  0.00000000E+00
  0.00000000E+00  0.00000000E+00  0.00000000E+00
  0.00000000E+00  0.00000000E+00  0.00000000E+00
  0.00000000E+00  0.00000000E+00  0.00000000E+00
  0.00000000E+00  0.00000000E+00  0.00000000E+00
  0.00000000E+00  0.00000000E+00  0.00000000E+00
  0.00000000E+00  0.00000000E+00  0.00000000E+00
  0.00000000E+00  0.00000000E+00  0.00000000E+00
  0.00000000E+00  0.00000000E+00  0.00000000E+00
  0.00000000E+00  0.00000000E+00  0.00000000E+00
  0.00000000E+00  0.00000000E+00  0.00000000E+00
  0.00000000E+00  0.00000000E+00  0.00000000E+00
  0.00000000E+00  0.00000000E+00  0.00000000E+00
