Al31
1.0
8.087052 0.000000 0.000000
0.000000 8.087052 0.000000
0.000000 0.000000 8.087052
Al
31
direct
-0.000281 0.000000 -0.000281 Al
0.249720 0.000000 0.249720 Al
0.249720 0.251356 0.001636 Al
0.001636 0.251356 0.249720 Al
0.500281 0.000000 -0.000281 Al
0.750280 0.000000 0.249720 Al
0.750280 0.249439 -0.000281 Al
0.498364 0.253271 0.251634 Al
0.001636 0.500000 0.001636 Al
0.249720 0.748644 0.001636 Al
0.001636 0.748644 0.249720 Al
0.498364 0.500000 0.001636 Al
0.748366 0.500000 0.251634 Al
0.750280 0.750560 -0.000281 Al
0.498364 0.746730 0.251634 Al
-0.000281 0.000000 0.500281 Al
0.249720 0.000000 0.750280 Al
0.251634 0.253271 0.498364 Al
-0.000281 0.249439 0.750280 Al
0.500281 0.000000 0.500281 Al
0.750280 0.000000 0.750280 Al
0.748366 0.251354 0.500281 Al
0.500281 0.251354 0.748366 Al
0.001636 0.500000 0.498364 Al
0.251634 0.500000 0.748366 Al
0.251634 0.746730 0.498364 Al
-0.000281 0.750560 0.750280 Al
0.748366 0.500000 0.748366 Al
0.748366 0.748646 0.500281 Al
0.500281 0.748646 0.748366 Al
0.374999 0.500000 0.374999 Al

0.000000 0.000000 0.000000
0.000000 0.000000 0.000000
0.000000 0.000000 0.000000
0.000000 0.000000 0.000000
0.000000 0.000000 0.000000
0.000000 0.000000 0.000000
0.000000 0.000000 0.000000
0.000000 0.000000 0.000000
0.000000 0.000000 0.000000
0.000000 0.000000 0.000000
0.000000 0.000000 0.000000
0.000000 0.000000 0.000000
0.000000 0.000000 0.000000
0.000000 0.000000 0.000000
0.000000 0.000000 0.000000
0.000000 0.000000 0.000000
0.000000 0.000000 0.000000
0.000000 0.000000 0.000000
0.000000 0.000000 0.000000
0.000000 0.000000 0.000000
0.000000 0.000000 0.000000
0.000000 0.000000 0.000000
0.000000 0.000000 0.000000
0.000000 0.000000 0.000000
0.000000 0.000000 0.000000
0.000000 0.000000 0.000000
0.000000 0.000000 0.000000
0.000000 0.000000 0.000000
0.000000 0.000000 0.000000
0.000000 0.000000 0.000000
0.000000 0.000000 0.000000
