Mg1 Al32
1.0
8.087040 0.000000 0.000000
0.000000 8.087040 0.000000
0.000000 0.000000 8.087040
Al Mg
32 1
direct
0.000452 0.000452 0.004756 Al
0.246033 0.000331 0.250337 Al
0.254160 0.254160 -0.003492 Al
0.000331 0.246033 0.250337 Al
0.499184 0.998013 1.010754 Al
0.751898 0.004555 0.248729 Al
0.743771 0.252552 0.000732 Al
0.497603 0.237521 0.250262 Al
0.998013 0.499184 1.010754 Al
0.237521 0.497603 0.250262 Al
0.252552 0.743771 0.000732 Al
0.004555 0.751898 0.248729 Al
0.501580 0.501580 1.047246 Al
0.762052 0.496464 0.248048 Al
0.748242 0.748242 0.008652 Al
0.496464 0.762052 0.248048 Al
0.998013 0.998013 0.494880 Al
0.235988 0.004555 0.747594 Al
0.254085 0.254085 0.501425 Al
0.004555 0.235988 0.747594 Al
0.501580 0.996619 0.488839 Al
0.764806 0.012475 0.752065 Al
0.745488 0.251870 0.500287 Al
0.496464 0.197420 0.749311 Al
0.996619 0.501580 0.488839 Al
0.197420 0.496464 0.749311 Al
0.251870 0.745488 0.500287 Al
0.012475 0.764806 0.752065 Al
0.502341 0.502341 0.451714 Al
0.801582 0.478559 0.750954 Al
0.747132 0.747132 0.482382 Al
0.478559 0.801582 0.750954 Al
0.553362 0.553362 0.715176 Mg

0.000000 0.000000 0.000000
0.000000 0.000000 0.000000
0.000000 0.000000 0.000000
0.000000 0.000000 0.000000
0.000000 0.000000 0.000000
0.000000 0.000000 0.000000
0.000000 0.000000 0.000000
0.000000 0.000000 0.000000
0.000000 0.000000 0.000000
0.000000 0.000000 0.000000
0.000000 0.000000 0.000000
0.000000 0.000000 0.000000
0.000000 0.000000 0.000000
0.000000 0.000000 0.000000
0.000000 0.000000 0.000000
0.000000 0.000000 0.000000
0.000000 0.000000 0.000000
0.000000 0.000000 0.000000
0.000000 0.000000 0.000000
0.000000 0.000000 0.000000
0.000000 0.000000 0.000000
0.000000 0.000000 0.000000
0.000000 0.000000 0.000000
0.000000 0.000000 0.000000
0.000000 0.000000 0.000000
0.000000 0.000000 0.000000
0.000000 0.000000 0.000000
0.000000 0.000000 0.000000
0.000000 0.000000 0.000000
0.000000 0.000000 0.000000
0.000000 0.000000 0.000000
0.000000 0.000000 0.000000
0.000000 0.000000 0.000000
