Mg1 Al30                                
   1.00000000000000     
     8.0870519999999999    0.0000000000000000    0.0000000000000000
     0.0000000000000000    8.0870519999999999    0.0000000000000000
     0.0000000000000000    0.0000000000000000    8.0870519999999999
   Al   Mg
  30   1
Direct
  0.0009060000000005  0.0000000000000000  0.0009060000000005
  0.2468489999999974  0.0000000000000000  0.2468489999999974
  0.2494749999999968  0.2555630000000022  0.0048680000000019
  0.0048680000000019  0.2555630000000022  0.2494749999999968
  0.5002279999999999  0.0000000000000000  0.9862430000000018
  0.7637569999999982  0.0000000000000000  0.2497729999999976
  0.7535549999999986  0.2472800000000035  0.9964459999999988
  0.5114329999999967  0.2280939999999987  0.2385680000000008
  0.9999830000000003  0.5000000000000000  0.9999830000000003
  0.2494749999999968  0.7444369999999978  0.0048680000000019
  0.0048680000000019  0.7444369999999978  0.2494749999999968
  0.4987660000000034  0.5000000000000000  0.0031859999999995
  0.7468130000000031  0.5000000000000000  0.2512320000000017
  0.7535549999999986  0.7527210000000011  0.9964459999999988
  0.5114329999999967  0.7719060000000013  0.2385680000000008
  0.9862430000000018  0.0000000000000000  0.5002279999999999
  0.2497729999999976  0.0000000000000000  0.7637569999999982
  0.2385680000000008  0.2280939999999987  0.5114329999999967
  0.9964459999999988  0.2472800000000035  0.7535549999999986
  0.5031510000000026  0.0000000000000000  0.5031510000000026
  0.7490939999999995  0.0000000000000000  0.7490939999999995
  0.7451310000000007  0.2555630000000022  0.5005260000000007
  0.5005260000000007  0.2555630000000022  0.7451310000000007
  0.0031859999999995  0.5000000000000000  0.4987660000000034
  0.2512320000000017  0.5000000000000000  0.7468130000000031
  0.2385680000000008  0.7719060000000013  0.5114329999999967
  0.9964459999999988  0.7527210000000011  0.7535549999999986
  0.7500179999999972  0.5000000000000000  0.7500179999999972
  0.7451310000000007  0.7444369999999978  0.5005260000000007
  0.5005260000000007  0.7444369999999978  0.7451310000000007
  0.3750000000000000  0.5000000000000000  0.3750000000000000
 
  0.00000000E+00  0.00000000E+00  0.00000000E+00
  0.00000000E+00  0.00000000E+00  0.00000000E+00
  0.00000000E+00  0.00000000E+00  0.00000000E+00
  0.00000000E+00  0.00000000E+00  0.00000000E+00
  0.00000000E+00  0.00000000E+00  0.00000000E+00
  0.00000000E+00  0.00000000E+00  0.00000000E+00
  0.00000000E+00  0.00000000E+00  0.00000000E+00
  0.00000000E+00  0.00000000E+00  0.00000000E+00
  0.00000000E+00  0.00000000E+00  0.00000000E+00
  0.00000000E+00  0.00000000E+00  0.00000000E+00
  0.00000000E+00  0.00000000E+00  0.00000000E+00
  0.00000000E+00  0.00000000E+00  0.00000000E+00
  0.00000000E+00  0.00000000E+00  0.00000000E+00
  0.00000000E+00  0.00000000E+00  0.00000000E+00
  0.00000000E+00  0.00000000E+00  0.00000000E+00
  0.00000000E+00  0.00000000E+00  0.00000000E+00
  0.00000000E+00  0.00000000E+00  0.00000000E+00
  0.00000000E+00  0.00000000E+00  0.00000000E+00
  0.00000000E+00  0.00000000E+00  0.00000000E+00
  0.00000000E+00  0.00000000E+00  0.00000000E+00
  0.00000000E+00  0.00000000E+00  0.00000000E+00
  0.00000000E+00  0.00000000E+00  0.00000000E+00
  0.00000000E+00  0.00000000E+00  0.00000000E+00
  0.00000000E+00  0.00000000E+00  0.00000000E+00
  0.00000000E+00  0.00000000E+00  0.00000000E+00
  0.00000000E+00  0.00000000E+00  0.00000000E+00
  0.00000000E+00  0.00000000E+00  0.00000000E+00
  0.00000000E+00  0.00000000E+00  0.00000000E+00
  0.00000000E+00  0.00000000E+00  0.00000000E+00
  0.00000000E+00  0.00000000E+00  0.00000000E+00
  0.00000000E+00  0.00000000E+00  0.00000000E+00
