Mg1 Al30
1.0
8.087052 0.000000 0.000000
0.000000 8.087052 0.000000
0.000000 0.000000 8.087052
Al Mg
30 1
direct
1.000906 0.000000 1.000906 Al
0.246849 0.000000 0.246849 Al
0.249475 0.255563 1.004868 Al
1.004868 0.255563 0.249475 Al
0.500228 0.000000 0.986243 Al
0.763757 0.000000 0.249773 Al
0.753555 0.247280 0.996446 Al
0.511433 0.228094 0.238568 Al
0.999983 0.500000 0.999983 Al
0.249475 0.744437 1.004868 Al
1.004868 0.744437 0.249475 Al
0.498766 0.500000 0.003186 Al
0.746813 0.500000 0.251232 Al
0.753555 0.752721 0.996446 Al
0.511433 0.771906 0.238568 Al
0.986243 0.000000 0.500228 Al
0.249773 0.000000 0.763757 Al
0.238568 0.228094 0.511433 Al
0.996446 0.247280 0.753555 Al
0.503151 0.000000 0.503151 Al
0.749094 0.000000 0.749094 Al
0.745131 0.255563 0.500526 Al
0.500526 0.255563 0.745131 Al
0.003186 0.500000 0.498766 Al
0.251232 0.500000 0.746813 Al
0.238568 0.771906 0.511433 Al
0.996446 0.752721 0.753555 Al
0.750018 0.500000 0.750018 Al
0.745131 0.744437 0.500526 Al
0.500526 0.744437 0.745131 Al
0.375000 0.500000 0.375000 Mg

0.000000 0.000000 0.000000
0.000000 0.000000 0.000000
0.000000 0.000000 0.000000
0.000000 0.000000 0.000000
0.000000 0.000000 0.000000
0.000000 0.000000 0.000000
0.000000 0.000000 0.000000
0.000000 0.000000 0.000000
0.000000 0.000000 0.000000
0.000000 0.000000 0.000000
0.000000 0.000000 0.000000
0.000000 0.000000 0.000000
0.000000 0.000000 0.000000
0.000000 0.000000 0.000000
0.000000 0.000000 0.000000
0.000000 0.000000 0.000000
0.000000 0.000000 0.000000
0.000000 0.000000 0.000000
0.000000 0.000000 0.000000
0.000000 0.000000 0.000000
0.000000 0.000000 0.000000
0.000000 0.000000 0.000000
0.000000 0.000000 0.000000
0.000000 0.000000 0.000000
0.000000 0.000000 0.000000
0.000000 0.000000 0.000000
0.000000 0.000000 0.000000
0.000000 0.000000 0.000000
0.000000 0.000000 0.000000
0.000000 0.000000 0.000000
0.000000 0.000000 0.000000
