Al31
1.0
8.087054 0.000000 0.000000
0.000000 8.087054 0.000000
0.000000 0.000000 8.087054
Al
31
direct
0.375000 0.500000 0.375000 Al
0.999702 0.000000 0.999702 Al
0.248465 0.000000 0.248465 Al
0.248122 0.253355 0.002381 Al
0.002381 0.253355 0.248122 Al
0.500527 0.000000 0.993077 Al
0.756923 0.000000 0.249473 Al
0.751339 0.250810 -0.001339 Al
0.506556 0.236971 0.243444 Al
0.000918 0.500000 0.000918 Al
0.248122 0.746645 0.002381 Al
0.002381 0.746645 0.248122 Al
0.494827 0.500000 0.005412 Al
0.744600 0.500000 0.255167 Al
0.751339 0.749190 -0.001339 Al
0.506556 0.763029 0.243444 Al
0.993077 0.000000 0.500527 Al
0.249473 0.000000 0.756923 Al
0.243444 0.236971 0.506556 Al
-0.001339 0.250810 0.751339 Al
0.501534 0.000000 0.501534 Al
0.750302 0.000000 0.750302 Al
0.747624 0.253354 0.501877 Al
0.501877 0.253354 0.747624 Al
0.005412 0.500000 0.494827 Al
0.255167 0.500000 0.744600 Al
0.243444 0.763029 0.506556 Al
-0.001339 0.749190 0.751339 Al
0.749088 0.500000 0.749088 Al
0.747624 0.746646 0.501877 Al
0.501877 0.746646 0.747624 Al
