Mg1 Al30                                
   1.00000000000000     
     8.0870519999999999    0.0000000000000000    0.0000000000000000
     0.0000000000000000    8.0870519999999999    0.0000000000000000
     0.0000000000000000    0.0000000000000000    8.0870519999999999
   Al   Mg
  30   1
Direct
  1.0009062271421447  0.0000000000000000  1.0009062271421447
  0.2468493460824553  0.0000000000000000  0.2468493460824553
  0.2494746539512399  0.2555627046452170  1.0048681213113553
  1.0048681213113553  0.2555627046452170  0.2494746539512399
  0.5002280878802894  0.0000000000000000  0.9862434219153906
  0.7637568114100052  0.0000000000000000  0.2497726459550514
  0.7535545226021241  0.2472802890801422  0.9964458634219550
  0.5114325442645555  0.2280943953222349  0.2385677294009494
  0.9999831689376530  0.5000000000000000  0.9999831689376530
  0.2494746539512399  0.7444372953547830  1.0048681213113553
  1.0048681213113553  0.7444372953547830  0.2494746539512399
  0.4987660299171426  0.5000000000000000  0.0031861723027512
  0.7468125829888529  0.5000000000000000  0.2512322031042555
  0.7535545226021241  0.7527207109198625  0.9964458634219550
  0.5114325442645555  0.7719056046777649  0.2385677294009494
  0.9862434219153906  0.0000000000000000  0.5002280878802894
  0.2497726459550514  0.0000000000000000  0.7637568114100052
  0.2385677294009494  0.2280943953222349  0.5114325442645555
  0.9964458634219550  0.2472802890801422  0.7535545226021241
  0.5031509566193060  0.0000000000000000  0.5031509566193060
  0.7490940534748907  0.0000000000000000  0.7490940534748907
  0.7451314720370927  0.2555629909627318  0.5005257870435698
  0.5005257870435698  0.2555629909627318  0.7451314720370927
  0.0031861723027512  0.5000000000000000  0.4987660299171426
  0.2512322031042555  0.5000000000000000  0.7468125829888529
  0.2385677294009494  0.7719056046777649  0.5114325442645555
  0.9964458634219550  0.7527207109198625  0.7535545226021241
  0.7500180397785438  0.5000000000000000  0.7500180397785438
  0.7451314720370927  0.7444370090372684  0.5005257870435698
  0.5005257870435698  0.7444370090372684  0.7451314720370927
  0.3750004665225716  0.5000000000000000  0.3750004665225716
 
  0.00000000E+00  0.00000000E+00  0.00000000E+00
  0.00000000E+00  0.00000000E+00  0.00000000E+00
  0.00000000E+00  0.00000000E+00  0.00000000E+00
  0.00000000E+00  0.00000000E+00  0.00000000E+00
  0.00000000E+00  0.00000000E+00  0.00000000E+00
  0.00000000E+00  0.00000000E+00  0.00000000E+00
  0.00000000E+00  0.00000000E+00  0.00000000E+00
  0.00000000E+00  0.00000000E+00  0.00000000E+00
  0.00000000E+00  0.00000000E+00  0.00000000E+00
  0.00000000E+00  0.00000000E+00  0.00000000E+00
  0.00000000E+00  0.00000000E+00  0.00000000E+00
  0.00000000E+00  0.00000000E+00  0.00000000E+00
  0.00000000E+00  0.00000000E+00  0.00000000E+00
  0.00000000E+00  0.00000000E+00  0.00000000E+00
  0.00000000E+00  0.00000000E+00  0.00000000E+00
  0.00000000E+00  0.00000000E+00  0.00000000E+00
  0.00000000E+00  0.00000000E+00  0.00000000E+00
  0.00000000E+00  0.00000000E+00  0.00000000E+00
  0.00000000E+00  0.00000000E+00  0.00000000E+00
  0.00000000E+00  0.00000000E+00  0.00000000E+00
  0.00000000E+00  0.00000000E+00  0.00000000E+00
  0.00000000E+00  0.00000000E+00  0.00000000E+00
  0.00000000E+00  0.00000000E+00  0.00000000E+00
  0.00000000E+00  0.00000000E+00  0.00000000E+00
  0.00000000E+00  0.00000000E+00  0.00000000E+00
  0.00000000E+00  0.00000000E+00  0.00000000E+00
  0.00000000E+00  0.00000000E+00  0.00000000E+00
  0.00000000E+00  0.00000000E+00  0.00000000E+00
  0.00000000E+00  0.00000000E+00  0.00000000E+00
  0.00000000E+00  0.00000000E+00  0.00000000E+00
  0.00000000E+00  0.00000000E+00  0.00000000E+00
