Image 3 test
1
3 0 0
0 3 0
0 0 3
Fe Cr
4  1
Direct
0.0 0.0 0.0
0.0 0.5 0.5
0.5 0.0 0.2
0.5 0.5 0.0
0.4 0.0 0.4
