Ga3 As5                                 
   1.00000000000000     
     5.6265999999999998    0.0000000000000000    0.0000000000000000
     0.0000000000000000    5.6265999999999998    0.0000000000000000
     0.0000000000000000    0.0000000000000000    5.6265999999999998
   Ga   As
   3   5
Direct
  0.5000000000000000  0.5000000000000000  0.0000000000000000
  0.0000000000000000  0.5000000000000000  0.5000000000000000
  0.5000000000000000  0.0000000000000000  0.5000000000000000
  0.0000000000000000  0.0000000000000000  0.0000000000000000
  0.2550389999999965  0.2550389999999965  0.2550389999999965
  0.7449610000000035  0.7449610000000035  0.2550389999999965
  0.2550389999999965  0.7449610000000035  0.7449610000000035
  0.7449610000000035  0.2550389999999965  0.7449610000000035
 
  0.00000000E+00  0.00000000E+00  0.00000000E+00
  0.00000000E+00  0.00000000E+00  0.00000000E+00
  0.00000000E+00  0.00000000E+00  0.00000000E+00
  0.00000000E+00  0.00000000E+00  0.00000000E+00
  0.00000000E+00  0.00000000E+00  0.00000000E+00
  0.00000000E+00  0.00000000E+00  0.00000000E+00
  0.00000000E+00  0.00000000E+00  0.00000000E+00
  0.00000000E+00  0.00000000E+00  0.00000000E+00
