ENCUT = 313
IBRION = -1
ISPIN = 2
LCHARG = False
LWAVE = False
NELECT = 63.0
NSW = 0
