POSCAR
1
3 0 0
0 3 0
0 0 3
Ar
2
Direct
.7 .70 .30
0.5 0.5 0
