ENCUT = 334.88375
IBRION = 2
ISIF = 3
ISMEAR = 1
LCHARG = False
LWAVE = False
NBANDS = 24
NSW = 191
PREC = Accurate
SIGMA = 0.2
