EDIFFG = 5e-2
ENCUT = 300
IALGO = 48
IBRION = -1
ISIF = 2
ISMEAR = 1
LCHARG = False
LWAVE = False
NSW = 0
PREC = Accurate
SIGMA = 0.2
