POSCAR_01:Al                            
   1.00000000000000     
    10.9063935957000009    0.0000000000000000    0.0000000000000000
     0.0000000000000000   10.9063935957000009    0.0000000000000000
     0.0000000000000000    0.0000000000000000   10.9063935957000009
   Al   Mg
     1   106
Direct
  0.0824069161349483 -0.0000927666708147  0.0825137496753418
  0.0031760122319457  1.0000249197623974  0.3242355804885261
  1.0001644953642597  1.0000043983133395  0.6678183178709319
  0.9975136814958910  0.3384224751714812  0.9974696429947952
  0.9985846836177951  0.3368349011629745  0.3361140293291518
  0.9989045955199103  0.3315223110777047  0.6653575548924232
  0.9975223256629276  0.6615571035212919  0.9974746739364532
  0.9985863527320059  0.6631193647543964  0.3361314616622827
  0.9988938387350840  0.6685117400597340  0.6653751162373900
  0.3243325351885447  1.0000232382857555  0.0030855218081501
  0.3295684713238540  1.0000130512734817  0.3296104147700001
  0.3309887382146094  0.9999907238280127  0.6673164647848622
  0.3360981506263400  0.3368954700354874  0.9986031370583113
  0.3329237779306893  0.3321004237150891  0.3329664383345273
  0.3333804358935738  0.3324029540773798  0.6645952716714983
  0.3361293786047389  0.6630554650877590  0.9986036185342385
  0.3328770835217157  0.6679218382460503  0.3329263290681511
  0.3333535037653843  0.6676167755288056  0.6645968450791168
  0.6677183402216945  1.0000092466204371  1.0001556687207731
  0.6672733737549483  0.9999909032099912  0.3309827605374539
  0.6662380456994998  0.9999605600601862  0.6662572484884840
  0.6653517619131788  0.3315206689798129  0.9989630628432766
  0.6646641615376694  0.3323129965284351  0.3333714066310922
  0.6658810213089488  0.3317294225152042  0.6658372955801533
  0.6653591823508838  0.6685160610696201  0.9989592375405655
  0.6646717794385096  0.6677084606703273  0.3333441309741314
  0.6658925408894851  0.6682705137980532  0.6658467594979549
  0.9966743644856324  0.1818487009827844  0.1684176035330438
  0.9997014336757705  0.1649240675605470  0.4974223786729281
  0.9999100224519133  0.1660079762696085  0.8358409604247217
  0.9980999102602693  0.4999843991435769  0.1670456454691208
  0.9985020792663963  0.5000095826027483  0.5019534517418404
  0.9981079400762494  0.4999860359834525  0.8294765522437826
  0.9966125645267963  0.8180648124893509  0.1684776512242470
  0.9997042865407612  0.8350967376527993  0.4973939997594062
  0.9999346771314931  0.8340326062191893  0.8358954808521875
  0.3292789372269133  0.1660640856593912  0.1652262217066657
  0.3315252224912832  0.1650253532324676  0.4984638984018795
  0.3324897407386226  0.1672508190337321  0.8326130393498754
  0.3356674980783360  0.4999861929074376  0.1670355063970982
  0.3334450039967463  0.5000239063656848  0.4990480605699622
  0.3348751787067786  0.4999897252996131  0.8302020751499721
  0.3292285375739453  0.8339813421529467  0.1652009975881762
  0.3314912369563627  0.8349700490466258  0.4984422725301501
  0.3324929307555323  0.8327468090429327  0.8325948558659699
  0.6676946274079635  0.1649462901284092  0.1654453213498184
  0.6659678731712987  0.1650463030626803  0.4990681881712239
  0.6665819006588911  0.1649399358206510  0.8335428690474829
  0.6631440413210967  0.5000041099137047  0.1665350696066608
  0.6651299145693808  0.5000173565953502  0.4999420843045155
  0.6660318805426179  0.5000164317818181  0.8315913667491215
  0.6677129109290656  0.8350810122244927  0.1654208698483254
  0.6659605060593330  0.8349030860377166  0.4990560897835838
  0.6665967807211641  0.8350523557932098  0.8335658161444085
  0.1650242491212458  1.0000093761550586  0.4974339599430413
  0.1621582913165054  1.0000190335442838  0.8408126119793127
  0.1676752468112714  0.3384165199852956  0.1676386846323754
  0.1660919441036731  0.3315218729122686  0.4997665225683464
  0.1665541705677018  0.3368813517196179  0.8289837252267209
  0.1676664861273227  0.6615600400143969  0.1676329712869115
  0.1660714886788189  0.6685155408153153  0.4997575386933305
  0.1665438710389307  0.6630746305627068  0.8289604307760482
  0.4973506996865786  1.0000076423956339  0.1650295908018715
  0.4986570540750477  0.9999666132399095  0.4986719138248022
  0.4977222954119343  0.9999903283424700  0.8341208563770485
  0.4997645963972622  0.3315362892842420  0.1661679455830561
  0.4992492780359920  0.3317907784917022  0.4991986917183042
  0.5004614888043810  0.3323782681266567  0.8316857529531556
  0.4997525636695405  0.6684992321749977  0.1661550203769841
  0.4992258810369842  0.6682128685098626  0.4991717599004510
  0.5004585416850205  0.6676357942018062  0.8316933259131485
  0.8408536376258654  1.0000252180438285  0.1620665032835954
  0.8341420967516383  0.9999872431138731  0.4977674263474396
  0.8354300927843960  1.0000137791360113  0.8354821710920060
  0.8289753185496467  0.3368341585506173  0.1665526561638923
  0.8317043291390361  0.3322885100097426  0.5004130616062373
  0.8321436688191346  0.3320484782826075  0.8321823255811046
  0.8289535187850532  0.6631214300758903  0.1665351986513850
  0.8317112053705166  0.6677323825966853  0.5004068987846776
  0.8321750058099957  0.6679660650983869  0.8322155975367008
  0.1684709874954357  0.1817375619388097  0.9966341569720326
  0.1652280820759309  0.1660688956653433  0.3293089782903254
  0.1654412054233179  0.1650058824772391  0.6677419903928790
  0.1670540393877294  0.4999905640027437  0.9980975507257497
  0.1669465962416625  0.4999856210441481  0.3356528170195106
  0.1664454199078891  0.5000021733387869  0.6630935937755136
  0.1685398718815085  0.8181750149083318  0.9965737343120461
  0.1651965290653901  0.8339833120785956  0.3292594064390085
  0.1654158683399617  0.8350148467209678  0.6677562884385524
  0.4973807195279956  0.1650102953792145  0.9997137052845735
  0.4984125407517074  0.1650183205985171  0.3315469018569893
  0.4990837923340339  0.1650969468596346  0.6659359523145967
  0.5020016798549432  0.4999959799362492  0.9985910062640110
  0.4991069884363650  0.5000247035336296  0.3334830281294090
  0.5000369059324534  0.5000175964536692  0.6650321730304076
  0.4973470240093512  0.8350170044253580  0.9997161170091058
  0.4983880811594101  0.8349750648117396  0.3315143444828432
  0.4990750367992640  0.8348568185315878  0.6659249625275132
  0.8358112972694681  0.1660096485268930  0.9999073319343391
  0.8326591829269305  0.1671185035408114  0.3324340311230222
  0.8335311281678622  0.1649247185383437  0.6666383391938531
  0.8294844890129246  0.4999896854035263  0.9981698935123674
  0.8302542393387983  0.4999927634807096  0.3348290889762333
  0.8315754251930537  0.5000146548261679  0.6659760432744101
  0.8358604523959371  0.8340401533513826  0.9999280935402959
  0.8326507480265595  0.8328866488616610  0.3324331431629953
  0.8335545255931796  0.8350698704034027  0.6666611823768128
 
  0.00000000E+00  0.00000000E+00  0.00000000E+00
  0.00000000E+00  0.00000000E+00  0.00000000E+00
  0.00000000E+00  0.00000000E+00  0.00000000E+00
  0.00000000E+00  0.00000000E+00  0.00000000E+00
  0.00000000E+00  0.00000000E+00  0.00000000E+00
  0.00000000E+00  0.00000000E+00  0.00000000E+00
  0.00000000E+00  0.00000000E+00  0.00000000E+00
  0.00000000E+00  0.00000000E+00  0.00000000E+00
  0.00000000E+00  0.00000000E+00  0.00000000E+00
  0.00000000E+00  0.00000000E+00  0.00000000E+00
  0.00000000E+00  0.00000000E+00  0.00000000E+00
  0.00000000E+00  0.00000000E+00  0.00000000E+00
  0.00000000E+00  0.00000000E+00  0.00000000E+00
  0.00000000E+00  0.00000000E+00  0.00000000E+00
  0.00000000E+00  0.00000000E+00  0.00000000E+00
  0.00000000E+00  0.00000000E+00  0.00000000E+00
  0.00000000E+00  0.00000000E+00  0.00000000E+00
  0.00000000E+00  0.00000000E+00  0.00000000E+00
  0.00000000E+00  0.00000000E+00  0.00000000E+00
  0.00000000E+00  0.00000000E+00  0.00000000E+00
  0.00000000E+00  0.00000000E+00  0.00000000E+00
  0.00000000E+00  0.00000000E+00  0.00000000E+00
  0.00000000E+00  0.00000000E+00  0.00000000E+00
  0.00000000E+00  0.00000000E+00  0.00000000E+00
  0.00000000E+00  0.00000000E+00  0.00000000E+00
  0.00000000E+00  0.00000000E+00  0.00000000E+00
  0.00000000E+00  0.00000000E+00  0.00000000E+00
  0.00000000E+00  0.00000000E+00  0.00000000E+00
  0.00000000E+00  0.00000000E+00  0.00000000E+00
  0.00000000E+00  0.00000000E+00  0.00000000E+00
  0.00000000E+00  0.00000000E+00  0.00000000E+00
  0.00000000E+00  0.00000000E+00  0.00000000E+00
  0.00000000E+00  0.00000000E+00  0.00000000E+00
  0.00000000E+00  0.00000000E+00  0.00000000E+00
  0.00000000E+00  0.00000000E+00  0.00000000E+00
  0.00000000E+00  0.00000000E+00  0.00000000E+00
  0.00000000E+00  0.00000000E+00  0.00000000E+00
  0.00000000E+00  0.00000000E+00  0.00000000E+00
  0.00000000E+00  0.00000000E+00  0.00000000E+00
  0.00000000E+00  0.00000000E+00  0.00000000E+00
  0.00000000E+00  0.00000000E+00  0.00000000E+00
  0.00000000E+00  0.00000000E+00  0.00000000E+00
  0.00000000E+00  0.00000000E+00  0.00000000E+00
  0.00000000E+00  0.00000000E+00  0.00000000E+00
  0.00000000E+00  0.00000000E+00  0.00000000E+00
  0.00000000E+00  0.00000000E+00  0.00000000E+00
  0.00000000E+00  0.00000000E+00  0.00000000E+00
  0.00000000E+00  0.00000000E+00  0.00000000E+00
  0.00000000E+00  0.00000000E+00  0.00000000E+00
  0.00000000E+00  0.00000000E+00  0.00000000E+00
  0.00000000E+00  0.00000000E+00  0.00000000E+00
  0.00000000E+00  0.00000000E+00  0.00000000E+00
  0.00000000E+00  0.00000000E+00  0.00000000E+00
  0.00000000E+00  0.00000000E+00  0.00000000E+00
  0.00000000E+00  0.00000000E+00  0.00000000E+00
  0.00000000E+00  0.00000000E+00  0.00000000E+00
  0.00000000E+00  0.00000000E+00  0.00000000E+00
  0.00000000E+00  0.00000000E+00  0.00000000E+00
  0.00000000E+00  0.00000000E+00  0.00000000E+00
  0.00000000E+00  0.00000000E+00  0.00000000E+00
  0.00000000E+00  0.00000000E+00  0.00000000E+00
  0.00000000E+00  0.00000000E+00  0.00000000E+00
  0.00000000E+00  0.00000000E+00  0.00000000E+00
  0.00000000E+00  0.00000000E+00  0.00000000E+00
  0.00000000E+00  0.00000000E+00  0.00000000E+00
  0.00000000E+00  0.00000000E+00  0.00000000E+00
  0.00000000E+00  0.00000000E+00  0.00000000E+00
  0.00000000E+00  0.00000000E+00  0.00000000E+00
  0.00000000E+00  0.00000000E+00  0.00000000E+00
  0.00000000E+00  0.00000000E+00  0.00000000E+00
  0.00000000E+00  0.00000000E+00  0.00000000E+00
  0.00000000E+00  0.00000000E+00  0.00000000E+00
  0.00000000E+00  0.00000000E+00  0.00000000E+00
  0.00000000E+00  0.00000000E+00  0.00000000E+00
  0.00000000E+00  0.00000000E+00  0.00000000E+00
  0.00000000E+00  0.00000000E+00  0.00000000E+00
  0.00000000E+00  0.00000000E+00  0.00000000E+00
  0.00000000E+00  0.00000000E+00  0.00000000E+00
  0.00000000E+00  0.00000000E+00  0.00000000E+00
  0.00000000E+00  0.00000000E+00  0.00000000E+00
  0.00000000E+00  0.00000000E+00  0.00000000E+00
  0.00000000E+00  0.00000000E+00  0.00000000E+00
  0.00000000E+00  0.00000000E+00  0.00000000E+00
  0.00000000E+00  0.00000000E+00  0.00000000E+00
  0.00000000E+00  0.00000000E+00  0.00000000E+00
  0.00000000E+00  0.00000000E+00  0.00000000E+00
  0.00000000E+00  0.00000000E+00  0.00000000E+00
  0.00000000E+00  0.00000000E+00  0.00000000E+00
  0.00000000E+00  0.00000000E+00  0.00000000E+00
  0.00000000E+00  0.00000000E+00  0.00000000E+00
  0.00000000E+00  0.00000000E+00  0.00000000E+00
  0.00000000E+00  0.00000000E+00  0.00000000E+00
  0.00000000E+00  0.00000000E+00  0.00000000E+00
  0.00000000E+00  0.00000000E+00  0.00000000E+00
  0.00000000E+00  0.00000000E+00  0.00000000E+00
  0.00000000E+00  0.00000000E+00  0.00000000E+00
  0.00000000E+00  0.00000000E+00  0.00000000E+00
  0.00000000E+00  0.00000000E+00  0.00000000E+00
  0.00000000E+00  0.00000000E+00  0.00000000E+00
  0.00000000E+00  0.00000000E+00  0.00000000E+00
  0.00000000E+00  0.00000000E+00  0.00000000E+00
  0.00000000E+00  0.00000000E+00  0.00000000E+00
  0.00000000E+00  0.00000000E+00  0.00000000E+00
  0.00000000E+00  0.00000000E+00  0.00000000E+00
  0.00000000E+00  0.00000000E+00  0.00000000E+00
  0.00000000E+00  0.00000000E+00  0.00000000E+00
  0.00000000E+00  0.00000000E+00  0.00000000E+00
