POSCAR_01:Al                            
   1.00000000000000     
    10.9063935957000009    0.0000000000000000    0.0000000000000000
     0.0000000000000000   10.9063935957000009    0.0000000000000000
     0.0000000000000000    0.0000000000000000   10.9063935957000009
   Al   Mg
     1   106
Direct
  0.0037994271534014  0.0020364581511611  0.0069444497974234
 -0.0137540607667858 -0.0021559293525431  0.3369240167180284
  0.0019636278446078  0.0012865270840839  0.6654247602503657
 -0.0004036329092413  0.3350776375367914  0.0005861814834641
  0.0009866238798810  0.3312452892258303  0.3337934558410036
  0.0016774647812207  0.3331641501585320  0.6662950712632499
  0.0014785601742977  0.6669290567089744  0.0018093730593242
  0.0017387672820510  0.6682871178381095  0.3341998298101954
  0.0016530493605717  0.6673357896078039  0.6668498753648913
  0.3318867533470537  0.0015932852412884  0.0047309030813435
  0.3468488425859686 -0.0018886508515736  0.3364048423341448
  0.3315550825812824  0.0013031516700887  0.6656202337640541
  0.3342628494522369  0.3346223386070974  0.0008502494227504
  0.3323866347661256  0.3304413381112465  0.3334181747477784
  0.3320142052702584  0.3329719834247910  0.6662738578368202
  0.3323309019913853  0.6674801687447708  0.0019024141237541
  0.3317271981077549  0.6689322397552276  0.3338739978834710
  0.3322647049394160  0.6675993017739639  0.6668985207996013
  0.6663040978595343 -0.0003834252160651 -0.0012703314104183
  0.6664767498278139  0.0000534460961060  0.3351604039938915
  0.6661884325685594  0.0001436035213762  0.6692863611458899
  0.6661774128792688  0.3364864218625123 -0.0013110708252321
  0.6663562588771633  0.3363286237321866  0.3355388573289211
  0.6663332187820131  0.3347274579746808  0.6667616265906579
  0.6662391838192774  0.6677237041457522  0.0003618071797442
  0.6661969190092111  0.6651003339658071  0.3351803475972999
  0.6664060935567286  0.6670376355473837  0.6676711536283808
 -0.0141962206639964  0.1725478823424045  0.1650105130459391
  0.0012430846292984  0.1667196602647118  0.4971048595403119
  0.0015768579074284  0.1676736409475541  0.8353141421400360
  0.0014344231044385  0.4988794557664301  0.1683902060302000
  0.0016649985516401  0.4997957978852708  0.4998526429578796
  0.0013477657485400  0.5007384482333780  0.8336353035727678
  0.0008495456502216  0.8352753456682603  0.1691555826669621
  0.0003849283168959  0.8342581721481650  0.5003249937277710
  0.0016196269159598  0.8342912924544479  0.8342697930967126
  0.3475998884309423  0.1709334327590958  0.1644461971658258
  0.3320577060455278  0.1665121083553319  0.4970679048449554
  0.3321274017316613  0.1671811430861071  0.8356014827143239
  0.3321437066497664  0.4988719888199577  0.1683954534942562
  0.3319272749829389  0.4997218412129047  0.4995706062202574
  0.3325266417515766  0.5007481527585566  0.8338655819666859
  0.3322228719323790  0.8369529077707789  0.1684326260318594
  0.3330224196604274  0.8346461717830395  0.5002262721415449
  0.3320910907238802  0.8348194240806320  0.8347401952673706
  0.6664241833847748  0.1682635842450271  0.1671076159388782
  0.6664705321226733  0.1680986800574556  0.5029398904412833
  0.6663883517558378  0.1678515736000788  0.8310867017023008
  0.6661303232039788  0.5034613001698631  0.1674535812473397
  0.6663978378245554  0.5006518198814379  0.5015209172213085
  0.6663629074092754  0.5016025884408917  0.8331086976994536
  0.6664466777535668  0.8317846341846848  0.1671047101673213
  0.6663992052669770  0.8323417471019398  0.5026171382662888
  0.6665448911898015  0.8334687543053579  0.8341901050975281
  0.1666928615391073  0.0050256473668910  0.4916583842650684
  0.1672296222531163  0.0017363789806186  0.8362173108329605
  0.1670128272064040  0.3263851617210820  0.1718327614548371
  0.1668300938935360  0.3310591937500807  0.4978454466830559
  0.1671573737514704  0.3330812998270116  0.8348456189860194
  0.1670451592080375  0.6682704674640021  0.1688789631990137
  0.1669859370739122  0.6685764755159042  0.4991900127506994
  0.1672064550647579  0.6672360289373636  0.8339763225712954
  0.5034637256804768 -0.0005295107095604  0.1662479978916551
  0.5026128169977371  0.0002689453929815  0.5035113625288163
  0.4981192489324566  0.0004539636500599  0.8338010685185755
  0.5035798177268379  0.3374165080079060  0.1671566925261176
  0.4985477500672432  0.3339577065749874  0.5008159402179378
  0.4991235681051946  0.3348133987682823  0.8326820628299484
  0.4981719710702869  0.6671431328277229  0.1677762313640221
  0.4986574083304944  0.6666607874301956  0.5013032464748303
  0.4988674081353616  0.6676237310846885  0.8339594218172018
  0.8296287315461498 -0.0005192120245076  0.1668305204804703
  0.8301720502328673  0.0002021010965288  0.5038288579155329
  0.8349595237001980  0.0005190992585843  0.8335977052783806
  0.8290996328219976  0.3378736867997597  0.1672299456706061
  0.8344856889746608  0.3342038139671956  0.5010602604312969
  0.8338350919154299  0.3350152846621331  0.8325224838357659
  0.8344065741051717  0.6664715792781334  0.1679249127733540
  0.8343609342257453  0.6664018401957736  0.5014842072542852
  0.8343099528290362  0.6674643075344668  0.8338639756222743
  0.1678457766999966  0.1659374671357940  0.0089169711531188
  0.1664651483305136  0.0851454252265106  0.2505245931627389
  0.1669410503947992  0.1665925112756969  0.6654998170591692
  0.1670671805649821  0.4993162949592636  0.0023833763415754
  0.1669334760461341  0.4986479351479278  0.3336466524145937
  0.1671269798735796  0.5001630838241851  0.6664044497000504
  0.1674536092583213  0.8347348073872610  0.0034401781554022
  0.1667951435923822  0.8424777012501392  0.3300426721158934
  0.1670281183688384  0.8357023626848005  0.6661006311970500
  0.5034952835364985  0.1679762098151846 -0.0024740239728292
  0.5034628781583750  0.1686853618964236  0.3355044683076474
  0.4980454148470184  0.1673617822990378  0.6673218586558715
  0.4992376368373116  0.5020247941750915  0.0002282818198808
  0.4982094795839212  0.5009535195700723  0.3346635317527754
  0.4986752125664825  0.5007718844493273  0.6670025004260993
  0.4984130880304922  0.8339046431317404  0.0008964837236506
  0.5028517100351998  0.8311889711735341  0.3347543910806923
  0.4987672572470599  0.8336579041163670  0.6681101751200516
  0.8290114826995416  0.1686615484120717 -0.0024629354455924
  0.8295502094676385  0.1690934200428252  0.3356713068802179
  0.8349503851281120  0.1676049224767964  0.6674384964457474
  0.8336696462680877  0.5019571839749929  0.0000625531698100
  0.8346300822082549  0.5009843337792930  0.3349047764651799
  0.8344458160154569  0.5008008456087992  0.6670131616253513
  0.8342787393749432  0.8332568632826262  0.0009989396893234
  0.8299478324358177  0.8306034426266098  0.3349699170181644
  0.8343219090570309  0.8334123594277477  0.6681690455535146
 
  0.00000000E+00  0.00000000E+00  0.00000000E+00
  0.00000000E+00  0.00000000E+00  0.00000000E+00
  0.00000000E+00  0.00000000E+00  0.00000000E+00
  0.00000000E+00  0.00000000E+00  0.00000000E+00
  0.00000000E+00  0.00000000E+00  0.00000000E+00
  0.00000000E+00  0.00000000E+00  0.00000000E+00
  0.00000000E+00  0.00000000E+00  0.00000000E+00
  0.00000000E+00  0.00000000E+00  0.00000000E+00
  0.00000000E+00  0.00000000E+00  0.00000000E+00
  0.00000000E+00  0.00000000E+00  0.00000000E+00
  0.00000000E+00  0.00000000E+00  0.00000000E+00
  0.00000000E+00  0.00000000E+00  0.00000000E+00
  0.00000000E+00  0.00000000E+00  0.00000000E+00
  0.00000000E+00  0.00000000E+00  0.00000000E+00
  0.00000000E+00  0.00000000E+00  0.00000000E+00
  0.00000000E+00  0.00000000E+00  0.00000000E+00
  0.00000000E+00  0.00000000E+00  0.00000000E+00
  0.00000000E+00  0.00000000E+00  0.00000000E+00
  0.00000000E+00  0.00000000E+00  0.00000000E+00
  0.00000000E+00  0.00000000E+00  0.00000000E+00
  0.00000000E+00  0.00000000E+00  0.00000000E+00
  0.00000000E+00  0.00000000E+00  0.00000000E+00
  0.00000000E+00  0.00000000E+00  0.00000000E+00
  0.00000000E+00  0.00000000E+00  0.00000000E+00
  0.00000000E+00  0.00000000E+00  0.00000000E+00
  0.00000000E+00  0.00000000E+00  0.00000000E+00
  0.00000000E+00  0.00000000E+00  0.00000000E+00
  0.00000000E+00  0.00000000E+00  0.00000000E+00
  0.00000000E+00  0.00000000E+00  0.00000000E+00
  0.00000000E+00  0.00000000E+00  0.00000000E+00
  0.00000000E+00  0.00000000E+00  0.00000000E+00
  0.00000000E+00  0.00000000E+00  0.00000000E+00
  0.00000000E+00  0.00000000E+00  0.00000000E+00
  0.00000000E+00  0.00000000E+00  0.00000000E+00
  0.00000000E+00  0.00000000E+00  0.00000000E+00
  0.00000000E+00  0.00000000E+00  0.00000000E+00
  0.00000000E+00  0.00000000E+00  0.00000000E+00
  0.00000000E+00  0.00000000E+00  0.00000000E+00
  0.00000000E+00  0.00000000E+00  0.00000000E+00
  0.00000000E+00  0.00000000E+00  0.00000000E+00
  0.00000000E+00  0.00000000E+00  0.00000000E+00
  0.00000000E+00  0.00000000E+00  0.00000000E+00
  0.00000000E+00  0.00000000E+00  0.00000000E+00
  0.00000000E+00  0.00000000E+00  0.00000000E+00
  0.00000000E+00  0.00000000E+00  0.00000000E+00
  0.00000000E+00  0.00000000E+00  0.00000000E+00
  0.00000000E+00  0.00000000E+00  0.00000000E+00
  0.00000000E+00  0.00000000E+00  0.00000000E+00
  0.00000000E+00  0.00000000E+00  0.00000000E+00
  0.00000000E+00  0.00000000E+00  0.00000000E+00
  0.00000000E+00  0.00000000E+00  0.00000000E+00
  0.00000000E+00  0.00000000E+00  0.00000000E+00
  0.00000000E+00  0.00000000E+00  0.00000000E+00
  0.00000000E+00  0.00000000E+00  0.00000000E+00
  0.00000000E+00  0.00000000E+00  0.00000000E+00
  0.00000000E+00  0.00000000E+00  0.00000000E+00
  0.00000000E+00  0.00000000E+00  0.00000000E+00
  0.00000000E+00  0.00000000E+00  0.00000000E+00
  0.00000000E+00  0.00000000E+00  0.00000000E+00
  0.00000000E+00  0.00000000E+00  0.00000000E+00
  0.00000000E+00  0.00000000E+00  0.00000000E+00
  0.00000000E+00  0.00000000E+00  0.00000000E+00
  0.00000000E+00  0.00000000E+00  0.00000000E+00
  0.00000000E+00  0.00000000E+00  0.00000000E+00
  0.00000000E+00  0.00000000E+00  0.00000000E+00
  0.00000000E+00  0.00000000E+00  0.00000000E+00
  0.00000000E+00  0.00000000E+00  0.00000000E+00
  0.00000000E+00  0.00000000E+00  0.00000000E+00
  0.00000000E+00  0.00000000E+00  0.00000000E+00
  0.00000000E+00  0.00000000E+00  0.00000000E+00
  0.00000000E+00  0.00000000E+00  0.00000000E+00
  0.00000000E+00  0.00000000E+00  0.00000000E+00
  0.00000000E+00  0.00000000E+00  0.00000000E+00
  0.00000000E+00  0.00000000E+00  0.00000000E+00
  0.00000000E+00  0.00000000E+00  0.00000000E+00
  0.00000000E+00  0.00000000E+00  0.00000000E+00
  0.00000000E+00  0.00000000E+00  0.00000000E+00
  0.00000000E+00  0.00000000E+00  0.00000000E+00
  0.00000000E+00  0.00000000E+00  0.00000000E+00
  0.00000000E+00  0.00000000E+00  0.00000000E+00
  0.00000000E+00  0.00000000E+00  0.00000000E+00
  0.00000000E+00  0.00000000E+00  0.00000000E+00
  0.00000000E+00  0.00000000E+00  0.00000000E+00
  0.00000000E+00  0.00000000E+00  0.00000000E+00
  0.00000000E+00  0.00000000E+00  0.00000000E+00
  0.00000000E+00  0.00000000E+00  0.00000000E+00
  0.00000000E+00  0.00000000E+00  0.00000000E+00
  0.00000000E+00  0.00000000E+00  0.00000000E+00
  0.00000000E+00  0.00000000E+00  0.00000000E+00
  0.00000000E+00  0.00000000E+00  0.00000000E+00
  0.00000000E+00  0.00000000E+00  0.00000000E+00
  0.00000000E+00  0.00000000E+00  0.00000000E+00
  0.00000000E+00  0.00000000E+00  0.00000000E+00
  0.00000000E+00  0.00000000E+00  0.00000000E+00
  0.00000000E+00  0.00000000E+00  0.00000000E+00
  0.00000000E+00  0.00000000E+00  0.00000000E+00
  0.00000000E+00  0.00000000E+00  0.00000000E+00
  0.00000000E+00  0.00000000E+00  0.00000000E+00
  0.00000000E+00  0.00000000E+00  0.00000000E+00
  0.00000000E+00  0.00000000E+00  0.00000000E+00
  0.00000000E+00  0.00000000E+00  0.00000000E+00
  0.00000000E+00  0.00000000E+00  0.00000000E+00
  0.00000000E+00  0.00000000E+00  0.00000000E+00
  0.00000000E+00  0.00000000E+00  0.00000000E+00
  0.00000000E+00  0.00000000E+00  0.00000000E+00
  0.00000000E+00  0.00000000E+00  0.00000000E+00
  0.00000000E+00  0.00000000E+00  0.00000000E+00
