Al29 Ag1 Pt1 Au1
1.0
8.087040 0.000000 0.000000
0.000000 8.087040 0.000000
0.000000 0.000000 8.087040
Al Au Pt Ag
29 1 1 1
direct
0.005207 -0.004032 0.999583 Al
0.255621 0.995029 0.243057 Al
0.254797 0.243760 0.998727 Al
0.999834 0.249808 0.248990 Al
0.752463 0.000719 0.252314 Al
0.751534 0.252501 -0.000400 Al
0.502709 0.252065 0.250808 Al
0.997309 0.498517 0.999574 Al
0.249440 0.498073 0.250343 Al
0.998034 0.747486 0.249809 Al
0.498300 0.502777 0.000784 Al
0.750274 0.500039 0.246761 Al
0.746872 0.751641 0.000767 Al
0.496943 0.752994 0.245407 Al
0.998757 0.999876 0.497962 Al
0.250621 0.251174 0.497231 Al
0.998501 0.251118 0.747683 Al
0.501823 0.001635 0.500861 Al
0.749397 0.001079 0.751640 Al
0.750957 0.248551 0.498846 Al
0.500062 0.249325 0.751953 Al
1.000999 0.499196 0.498555 Al
0.249037 0.500325 0.750875 Al
0.248756 0.747977 0.499612 Al
0.998903 0.748982 0.751534 Al
0.500893 0.499845 0.497398 Al
0.750631 0.498735 0.748552 Al
0.750101 0.749483 0.497127 Al
0.491795 0.758616 0.759605 Al
0.375250 0.007444 0.872969 Au
0.375642 -0.128086 0.017060 Pt
0.248539 0.873351 -0.125988 Ag

0.000000 0.000000 0.000000
0.000000 0.000000 0.000000
0.000000 0.000000 0.000000
0.000000 0.000000 0.000000
0.000000 0.000000 0.000000
0.000000 0.000000 0.000000
0.000000 0.000000 0.000000
0.000000 0.000000 0.000000
0.000000 0.000000 0.000000
0.000000 0.000000 0.000000
0.000000 0.000000 0.000000
0.000000 0.000000 0.000000
0.000000 0.000000 0.000000
0.000000 0.000000 0.000000
0.000000 0.000000 0.000000
0.000000 0.000000 0.000000
0.000000 0.000000 0.000000
0.000000 0.000000 0.000000
0.000000 0.000000 0.000000
0.000000 0.000000 0.000000
0.000000 0.000000 0.000000
0.000000 0.000000 0.000000
0.000000 0.000000 0.000000
0.000000 0.000000 0.000000
0.000000 0.000000 0.000000
0.000000 0.000000 0.000000
0.000000 0.000000 0.000000
0.000000 0.000000 0.000000
0.000000 0.000000 0.000000
0.000000 0.000000 0.000000
0.000000 0.000000 0.000000
0.000000 0.000000 0.000000
