Al29 Ag1 Pt1 Au1
1.0
8.087040 0.000000 0.000000
0.000000 8.087040 0.000000
0.000000 0.000000 8.087040
Al Au Pt Ag
29 1 1 1
direct
0.004473 0.000310 0.999796 Al
0.258422 0.999355 0.244100 Al
0.259358 0.242039 0.997156 Al
0.998995 0.248646 0.249341 Al
0.751219 0.000892 0.253870 Al
0.751431 0.251618 0.000254 Al
0.502899 0.250437 0.251685 Al
0.998440 0.498200 0.998214 Al
0.249187 0.497523 0.249109 Al
0.997686 0.747902 0.249255 Al
0.501942 0.501781 0.000961 Al
0.749909 0.499546 0.247184 Al
0.747414 0.754384 0.000082 Al
0.499885 0.754612 0.247175 Al
0.996628 0.998905 0.498369 Al
0.249494 0.250773 0.496251 Al
0.996265 0.249946 0.747478 Al
0.501079 0.001468 0.503690 Al
0.746256 0.000596 0.755392 Al
0.749454 0.246322 0.499354 Al
0.498613 0.243675 0.756005 Al
0.999204 0.498324 0.497541 Al
0.248184 0.498035 0.747415 Al
0.248440 0.747898 0.497455 Al
0.994935 0.747875 0.748464 Al
0.499954 0.497602 0.498501 Al
0.747905 0.496209 0.748151 Al
0.748741 0.748951 0.496585 Al
0.492782 0.760015 0.759142 Al
0.240766 0.005674 0.740279 Au
0.520797 0.014576 0.019595 Pt
0.249240 0.745909 0.002148 Ag

0.000000 0.000000 0.000000
0.000000 0.000000 0.000000
0.000000 0.000000 0.000000
0.000000 0.000000 0.000000
0.000000 0.000000 0.000000
0.000000 0.000000 0.000000
0.000000 0.000000 0.000000
0.000000 0.000000 0.000000
0.000000 0.000000 0.000000
0.000000 0.000000 0.000000
0.000000 0.000000 0.000000
0.000000 0.000000 0.000000
0.000000 0.000000 0.000000
0.000000 0.000000 0.000000
0.000000 0.000000 0.000000
0.000000 0.000000 0.000000
0.000000 0.000000 0.000000
0.000000 0.000000 0.000000
0.000000 0.000000 0.000000
0.000000 0.000000 0.000000
0.000000 0.000000 0.000000
0.000000 0.000000 0.000000
0.000000 0.000000 0.000000
0.000000 0.000000 0.000000
0.000000 0.000000 0.000000
0.000000 0.000000 0.000000
0.000000 0.000000 0.000000
0.000000 0.000000 0.000000
0.000000 0.000000 0.000000
0.000000 0.000000 0.000000
0.000000 0.000000 0.000000
0.000000 0.000000 0.000000
