Al30 Cu1                                
   1.00000000000000     
     8.0870400000000000    0.0000000000000000    0.0000000000000000
     0.0000000000000000    8.0870400000000000    0.0000000000000000
     0.0000000000000000    0.0000000000000000    8.0870400000000000
   Al   Cu
  30   1
Direct
  0.9982978156688301  0.9979104916225114  0.9994983652524109
  0.2543617280957878  0.0103464196266768  0.2543877593762492
  0.2531841030151801  0.2500000000000000  0.0052651073511406
  0.0039386668770637  0.2500000000000000  0.2528548690575114
  0.5007815295656263  0.0035351312630170  0.0041200499954392
  0.7458799500045608  0.0035351312630170  0.2492184704343738
  0.7492391925078983  0.2500000000000000  0.0007608074921018
  0.9982978156688301  0.5020895083774886  0.9994983652524109
  0.2543617280957878  0.4896535803733231  0.2543877593762492
  0.2510875702637538  0.7500000000000000  0.9998330992043040
  0.9972350657137494  0.7500000000000000  0.2481175980342714
  0.5007815295656263  0.4964648687369829  0.0041200499954392
  0.7458799500045608  0.4964648687369829  0.2492184704343738
  0.7510794266205566  0.7500000000000000 -0.0010794266205565
  0.5012640264355994  0.7500000000000000  0.2487359735644004
  0.0033568664158342  0.0043211302889870  0.4995470158820234
  0.2504529841179766  0.0043211302889870  0.7466431335841658
  0.0025707494197391  0.2500000000000000  0.7474292505802611
  0.4956122406237508  0.0103464196266768  0.4956382719042122
  0.7505016347475891  0.9979104916225114  0.7517021843311699
  0.7447348926488595  0.2500000000000000  0.4968158969848199
  0.4971451309424886  0.2500000000000000  0.7460613331229364
  0.0033568664158342  0.4956788697110129  0.4995470158820234
  0.2504529841179766  0.4956788697110129  0.7466431335841658
  0.2499684009497193  0.7500000000000000  0.5000315990502806
 -0.0018034815705592  0.7500000000000000  0.7518034815705591
  0.4956122406237508  0.4896535803733231  0.4956382719042122
  0.7505016347475891  0.5020895083774886  0.7517021843311699
  0.7501669007956960  0.7500000000000000  0.4989124297362462
  0.5018824019657285  0.7500000000000000  0.7527649342862506
  0.4998194549346102  0.2500000000000000  0.2501805450653898
 
  0.00000000E+00  0.00000000E+00  0.00000000E+00
  0.00000000E+00  0.00000000E+00  0.00000000E+00
  0.00000000E+00  0.00000000E+00  0.00000000E+00
  0.00000000E+00  0.00000000E+00  0.00000000E+00
  0.00000000E+00  0.00000000E+00  0.00000000E+00
  0.00000000E+00  0.00000000E+00  0.00000000E+00
  0.00000000E+00  0.00000000E+00  0.00000000E+00
  0.00000000E+00  0.00000000E+00  0.00000000E+00
  0.00000000E+00  0.00000000E+00  0.00000000E+00
  0.00000000E+00  0.00000000E+00  0.00000000E+00
  0.00000000E+00  0.00000000E+00  0.00000000E+00
  0.00000000E+00  0.00000000E+00  0.00000000E+00
  0.00000000E+00  0.00000000E+00  0.00000000E+00
  0.00000000E+00  0.00000000E+00  0.00000000E+00
  0.00000000E+00  0.00000000E+00  0.00000000E+00
  0.00000000E+00  0.00000000E+00  0.00000000E+00
  0.00000000E+00  0.00000000E+00  0.00000000E+00
  0.00000000E+00  0.00000000E+00  0.00000000E+00
  0.00000000E+00  0.00000000E+00  0.00000000E+00
  0.00000000E+00  0.00000000E+00  0.00000000E+00
  0.00000000E+00  0.00000000E+00  0.00000000E+00
  0.00000000E+00  0.00000000E+00  0.00000000E+00
  0.00000000E+00  0.00000000E+00  0.00000000E+00
  0.00000000E+00  0.00000000E+00  0.00000000E+00
  0.00000000E+00  0.00000000E+00  0.00000000E+00
  0.00000000E+00  0.00000000E+00  0.00000000E+00
  0.00000000E+00  0.00000000E+00  0.00000000E+00
  0.00000000E+00  0.00000000E+00  0.00000000E+00
  0.00000000E+00  0.00000000E+00  0.00000000E+00
  0.00000000E+00  0.00000000E+00  0.00000000E+00
  0.00000000E+00  0.00000000E+00  0.00000000E+00
