Al30 Cu1
1.0
8.087040 0.000000 0.000000
0.000000 8.087040 0.000000
0.000000 0.000000 8.087040
Al Cu
30 1
direct
-0.001035 -0.008187 -0.004063 Al
0.248148 -0.000662 0.246174 Al
0.248233 0.250000 0.002962 Al
0.001536 0.250000 0.246661 Al
0.501538 -0.000129 0.001111 Al
0.748889 -0.000129 0.248462 Al
0.754306 0.250000 -0.004306 Al
-0.001035 0.508187 -0.004063 Al
0.248148 0.500662 0.246174 Al
0.246791 0.750000 -0.003544 Al
-0.002330 0.750000 0.246164 Al
0.501538 0.500129 0.001111 Al
0.748889 0.500129 0.248462 Al
0.757107 0.750000 -0.007107 Al
0.500543 0.750000 0.249457 Al
-0.003356 -0.004219 0.503257 Al
0.246743 -0.004219 0.753356 Al
-0.003945 0.250000 0.753945 Al
0.503826 -0.000662 0.501852 Al
0.754063 -0.008187 0.751035 Al
0.747038 0.250000 0.501767 Al
0.503339 0.250000 0.748464 Al
-0.003356 0.504219 0.503257 Al
0.246743 0.504219 0.753356 Al
0.249521 0.750000 0.500479 Al
-0.006408 0.750000 0.756408 Al
0.503826 0.500662 0.501852 Al
0.754063 0.508187 0.751035 Al
0.753544 0.750000 0.503209 Al
0.503836 0.750000 0.752330 Al
0.499259 0.250000 0.250741 Cu

0.000000 0.000000 0.000000
0.000000 0.000000 0.000000
0.000000 0.000000 0.000000
0.000000 0.000000 0.000000
0.000000 0.000000 0.000000
0.000000 0.000000 0.000000
0.000000 0.000000 0.000000
0.000000 0.000000 0.000000
0.000000 0.000000 0.000000
0.000000 0.000000 0.000000
0.000000 0.000000 0.000000
0.000000 0.000000 0.000000
0.000000 0.000000 0.000000
0.000000 0.000000 0.000000
0.000000 0.000000 0.000000
0.000000 0.000000 0.000000
0.000000 0.000000 0.000000
0.000000 0.000000 0.000000
0.000000 0.000000 0.000000
0.000000 0.000000 0.000000
0.000000 0.000000 0.000000
0.000000 0.000000 0.000000
0.000000 0.000000 0.000000
0.000000 0.000000 0.000000
0.000000 0.000000 0.000000
0.000000 0.000000 0.000000
0.000000 0.000000 0.000000
0.000000 0.000000 0.000000
0.000000 0.000000 0.000000
0.000000 0.000000 0.000000
0.000000 0.000000 0.000000
