Al30 Cu1
1.0
8.087040 0.000000 0.000000
0.000000 8.087040 0.000000
0.000000 0.000000 8.087040
Al Cu
30 1
direct
0.999170 0.997898 0.998560 Al
0.254383 0.010306 0.254368 Al
0.252956 0.250000 0.004234 Al
0.004903 0.250000 0.253122 Al
0.499839 0.004112 0.003531 Al
0.746469 0.004112 0.250161 Al
0.747900 0.250000 0.002100 Al
0.999170 0.502102 0.998560 Al
0.254383 0.489694 0.254368 Al
0.248885 0.750000 0.997850 Al
0.999141 0.750000 0.250385 Al
0.499839 0.495887 0.003531 Al
0.746469 0.495887 0.250161 Al
0.751631 0.750000 0.998369 Al
0.500318 0.750000 0.249682 Al
0.003916 0.003729 0.500479 Al
0.249521 0.003729 0.746084 Al
0.001195 0.250000 0.748804 Al
0.495632 0.010306 0.495617 Al
0.751440 0.997898 0.750830 Al
0.745766 0.250000 0.497044 Al
0.496878 0.250000 0.745097 Al
0.003916 0.496271 0.500479 Al
0.249521 0.496271 0.746084 Al
0.249041 0.750000 0.500959 Al
0.998733 0.750000 0.751267 Al
0.495632 0.489694 0.495617 Al
0.751440 0.502102 0.750830 Al
0.752150 0.750000 0.501115 Al
0.499615 0.750000 0.750859 Al
0.312651 0.250000 0.437349 Cu

0.000000 0.000000 0.000000
0.000000 0.000000 0.000000
0.000000 0.000000 0.000000
0.000000 0.000000 0.000000
0.000000 0.000000 0.000000
0.000000 0.000000 0.000000
0.000000 0.000000 0.000000
0.000000 0.000000 0.000000
0.000000 0.000000 0.000000
0.000000 0.000000 0.000000
0.000000 0.000000 0.000000
0.000000 0.000000 0.000000
0.000000 0.000000 0.000000
0.000000 0.000000 0.000000
0.000000 0.000000 0.000000
0.000000 0.000000 0.000000
0.000000 0.000000 0.000000
0.000000 0.000000 0.000000
0.000000 0.000000 0.000000
0.000000 0.000000 0.000000
0.000000 0.000000 0.000000
0.000000 0.000000 0.000000
0.000000 0.000000 0.000000
0.000000 0.000000 0.000000
0.000000 0.000000 0.000000
0.000000 0.000000 0.000000
0.000000 0.000000 0.000000
0.000000 0.000000 0.000000
0.000000 0.000000 0.000000
0.000000 0.000000 0.000000
0.000000 0.000000 0.000000
