Al                                      
   1.00000000000000     
    10.9063935956658007    0.0000000000000000    0.0000000000000000
     0.0000000000000000   10.9063935956658007    0.0000000000000000
     0.0000000000000000    0.0000000000000000   10.9063935956658025
   Al   Mg
     1   106
Direct
  0.0039959425940280  0.0000000000000000  0.0039959425940280
  0.0021688967654568  0.0000000000000000  0.3313745088024431
  0.0005249794891099  0.0000000000000000  0.6662917492898636
  0.0004825381805219  0.3334392276613489  0.0004825381805219
  0.0005434782458693  0.3330680363339493  0.3333111629743057
  0.0003035026005224  0.3333902023650301  0.6661275036040266
  0.0004825381805219  0.6665607723386511  0.0004825381805219
  0.0005434782458693  0.6669319636660508  0.3333111629743057
  0.0003035026005224  0.6666097976349699  0.6661275036040266
  0.3313745088024431  0.0000000000000000  0.0021688967654568
  0.3313083436017526  0.0000000000000000  0.3313083436017526
  0.3332152533870888  0.0000000000000000  0.6663660136179984
  0.3333111629743057  0.3330680363339493  0.0005434782458693
  0.3329986254468575  0.3326590949840583  0.3329986254468575
  0.3334387795071183  0.3331885329546344  0.6662946987214259
  0.3333111629743057  0.6669319636660508  0.0005434782458693
  0.3329986254468575  0.6673409050159417  0.3329986254468575
  0.3334387795071183  0.6668114670453655  0.6662946987214259
  0.6662917492898636  0.0000000000000000  0.0005249794891099
  0.6663660136179984  0.0000000000000000  0.3332152533870888
  0.6662390922912299  0.0000000000000000  0.6662390922912299
  0.6661275036040266  0.3333902023650301  0.0003035026005224
  0.6662946987214259  0.3331885329546344  0.3334387795071183
  0.6663518846290862  0.3333046074293048  0.6663518846290862
  0.6661275036040266  0.6666097976349699  0.0003035026005224
  0.6662946987214259  0.6668114670453655  0.3334387795071183
  0.6663518846290862  0.6666953925706952  0.6663518846290862
  0.0016728235450595  0.1664843105029845  0.1675598129682274
  0.0005706605978851  0.1662626226252954  0.4991101490323059
  0.0004627157149182  0.1671163583140126  0.8331870950917796
  0.0004563778977979  0.5000000000000000  0.1670559477531127
  0.0003574843178426  0.5000000000000000  0.4996243078742817
  0.0002801496604264  0.5000000000000000  0.8333184331707140
  0.0016728235450595  0.8335156894970156  0.1675598129682274
  0.0005706605978851  0.8337373773747045  0.4991101490323059
  0.0004627157149182  0.8328836416859875  0.8331870950917796
  0.3315754732356183  0.1650478754459631  0.1668904033981329
  0.3329287460755032  0.1661998744860370  0.4990949538890331
  0.3331979429478164  0.1665486453801602  0.8337317455959732
  0.3332308925635497  0.5000000000000000  0.1669640041811364
  0.3332744920804659  0.5000000000000000  0.4994975824313720
  0.3334907847716585  0.5000000000000000  0.8335037999054038
  0.3315754732356183  0.8349521245540370  0.1668904033981329
  0.3329287460755032  0.8338001255139631  0.4990949538890331
  0.3331979429478164  0.8334513546198398  0.8337317455959732
  0.6664322562349458  0.1664476488948478  0.1670537078256691
  0.6663597151351144  0.1665199370368717  0.4995856306752900
  0.6663022775763935  0.1667239327119980  0.8333426316956948
  0.6661467653407438  0.5000000000000000  0.1669760003306714
  0.6664362704874959  0.5000000000000000  0.4997629563231565
  0.6663498146557038  0.5000000000000000  0.8333584682616688
  0.6664322562349458  0.8335523511051522  0.1670537078256691
  0.6663597151351144  0.8334800629631284  0.4995856306752900
  0.6663022775763935  0.8332760672880020  0.8333426316956948
  0.1668703927126663  0.0000000000000000  0.4988040933574397
  0.1674031477632856  0.0000000000000000  0.8342680507472928
  0.1670890905542564  0.3327237413557016  0.1670890905542564
  0.1669362707173866  0.3331472854030010  0.4996998652328527
  0.1671255000799670  0.3336704830325895  0.8329639937495514
  0.1670890905542564  0.6672762586442984  0.1670890905542564
  0.1669362707173866  0.6668527145969989  0.4996998652328527
  0.1671255000799670  0.6663295169674105  0.8329639937495514
  0.4988040933574397  0.0000000000000000  0.1668703927126663
  0.4994880605892852  0.0000000000000000  0.4994880605892852
  0.4996770187162486  0.0000000000000000  0.8334778830353121
  0.4996998652328527  0.3331472854030010  0.1669362707173866
  0.4996140199113298  0.3331071904580906  0.4996140199113298
  0.4997139785654784  0.3332489203939730  0.8334549575083758
  0.4996998652328527  0.6668527145969989  0.1669362707173866
  0.4996140199113298  0.6668928095419094  0.4996140199113298
  0.4997139785654784  0.6667510796060270  0.8334549575083758
  0.8342680507472928  0.0000000000000000  0.1674031477632856
  0.8334778830353121  0.0000000000000000  0.4996770187162486
  0.8334105104965642  0.0000000000000000  0.8334105104965642
  0.8329639937495514  0.3336704830325895  0.1671255000799670
  0.8334549575083758  0.3332489203939730  0.4997139785654784
  0.8332507044020755  0.3334368034120101  0.8332507044020755
  0.8329639937495514  0.6663295169674105  0.1671255000799670
  0.8334549575083758  0.6667510796060270  0.4997139785654784
  0.8332507044020755  0.6665631965879899  0.8332507044020755
  0.1675598129682274  0.1664843105029845  0.0016728235450595
  0.1668904033981329  0.1650478754459631  0.3315754732356183
  0.1670537078256691  0.1664476488948478  0.6664322562349458
  0.1670559477531127  0.5000000000000000  0.0004563778977979
  0.1669640041811364  0.5000000000000000  0.3332308925635497
  0.1669760003306714  0.5000000000000000  0.6661467653407438
  0.1675598129682274  0.8335156894970156  0.0016728235450595
  0.1668904033981329  0.8349521245540370  0.3315754732356183
  0.1670537078256691  0.8335523511051522  0.6664322562349458
  0.4991101490323059  0.1662626226252954  0.0005706605978851
  0.4990949538890331  0.1661998744860370  0.3329287460755032
  0.4995856306752900  0.1665199370368717  0.6663597151351144
  0.4996243078742817  0.5000000000000000  0.0003574843178426
  0.4994975824313720  0.5000000000000000  0.3332744920804659
  0.4997629563231565  0.5000000000000000  0.6664362704874959
  0.4991101490323059  0.8337373773747045  0.0005706605978851
  0.4990949538890331  0.8338001255139631  0.3329287460755032
  0.4995856306752900  0.8334800629631284  0.6663597151351144
  0.8331870950917796  0.1671163583140126  0.0004627157149182
  0.8337317455959732  0.1665486453801602  0.3331979429478164
  0.8333426316956948  0.1667239327119980  0.6663022775763935
  0.8333184331707140  0.5000000000000000  0.0002801496604264
  0.8335037999054038  0.5000000000000000  0.3334907847716585
  0.8333584682616688  0.5000000000000000  0.6663498146557038
  0.8331870950917796  0.8328836416859875  0.0004627157149182
  0.8337317455959732  0.8334513546198398  0.3331979429478164
  0.8333426316956948  0.8332760672880020  0.6663022775763935
 
  0.00000000E+00  0.00000000E+00  0.00000000E+00
  0.00000000E+00  0.00000000E+00  0.00000000E+00
  0.00000000E+00  0.00000000E+00  0.00000000E+00
  0.00000000E+00  0.00000000E+00  0.00000000E+00
  0.00000000E+00  0.00000000E+00  0.00000000E+00
  0.00000000E+00  0.00000000E+00  0.00000000E+00
  0.00000000E+00  0.00000000E+00  0.00000000E+00
  0.00000000E+00  0.00000000E+00  0.00000000E+00
  0.00000000E+00  0.00000000E+00  0.00000000E+00
  0.00000000E+00  0.00000000E+00  0.00000000E+00
  0.00000000E+00  0.00000000E+00  0.00000000E+00
  0.00000000E+00  0.00000000E+00  0.00000000E+00
  0.00000000E+00  0.00000000E+00  0.00000000E+00
  0.00000000E+00  0.00000000E+00  0.00000000E+00
  0.00000000E+00  0.00000000E+00  0.00000000E+00
  0.00000000E+00  0.00000000E+00  0.00000000E+00
  0.00000000E+00  0.00000000E+00  0.00000000E+00
  0.00000000E+00  0.00000000E+00  0.00000000E+00
  0.00000000E+00  0.00000000E+00  0.00000000E+00
  0.00000000E+00  0.00000000E+00  0.00000000E+00
  0.00000000E+00  0.00000000E+00  0.00000000E+00
  0.00000000E+00  0.00000000E+00  0.00000000E+00
  0.00000000E+00  0.00000000E+00  0.00000000E+00
  0.00000000E+00  0.00000000E+00  0.00000000E+00
  0.00000000E+00  0.00000000E+00  0.00000000E+00
  0.00000000E+00  0.00000000E+00  0.00000000E+00
  0.00000000E+00  0.00000000E+00  0.00000000E+00
  0.00000000E+00  0.00000000E+00  0.00000000E+00
  0.00000000E+00  0.00000000E+00  0.00000000E+00
  0.00000000E+00  0.00000000E+00  0.00000000E+00
  0.00000000E+00  0.00000000E+00  0.00000000E+00
  0.00000000E+00  0.00000000E+00  0.00000000E+00
  0.00000000E+00  0.00000000E+00  0.00000000E+00
  0.00000000E+00  0.00000000E+00  0.00000000E+00
  0.00000000E+00  0.00000000E+00  0.00000000E+00
  0.00000000E+00  0.00000000E+00  0.00000000E+00
  0.00000000E+00  0.00000000E+00  0.00000000E+00
  0.00000000E+00  0.00000000E+00  0.00000000E+00
  0.00000000E+00  0.00000000E+00  0.00000000E+00
  0.00000000E+00  0.00000000E+00  0.00000000E+00
  0.00000000E+00  0.00000000E+00  0.00000000E+00
  0.00000000E+00  0.00000000E+00  0.00000000E+00
  0.00000000E+00  0.00000000E+00  0.00000000E+00
  0.00000000E+00  0.00000000E+00  0.00000000E+00
  0.00000000E+00  0.00000000E+00  0.00000000E+00
  0.00000000E+00  0.00000000E+00  0.00000000E+00
  0.00000000E+00  0.00000000E+00  0.00000000E+00
  0.00000000E+00  0.00000000E+00  0.00000000E+00
  0.00000000E+00  0.00000000E+00  0.00000000E+00
  0.00000000E+00  0.00000000E+00  0.00000000E+00
  0.00000000E+00  0.00000000E+00  0.00000000E+00
  0.00000000E+00  0.00000000E+00  0.00000000E+00
  0.00000000E+00  0.00000000E+00  0.00000000E+00
  0.00000000E+00  0.00000000E+00  0.00000000E+00
  0.00000000E+00  0.00000000E+00  0.00000000E+00
  0.00000000E+00  0.00000000E+00  0.00000000E+00
  0.00000000E+00  0.00000000E+00  0.00000000E+00
  0.00000000E+00  0.00000000E+00  0.00000000E+00
  0.00000000E+00  0.00000000E+00  0.00000000E+00
  0.00000000E+00  0.00000000E+00  0.00000000E+00
  0.00000000E+00  0.00000000E+00  0.00000000E+00
  0.00000000E+00  0.00000000E+00  0.00000000E+00
  0.00000000E+00  0.00000000E+00  0.00000000E+00
  0.00000000E+00  0.00000000E+00  0.00000000E+00
  0.00000000E+00  0.00000000E+00  0.00000000E+00
  0.00000000E+00  0.00000000E+00  0.00000000E+00
  0.00000000E+00  0.00000000E+00  0.00000000E+00
  0.00000000E+00  0.00000000E+00  0.00000000E+00
  0.00000000E+00  0.00000000E+00  0.00000000E+00
  0.00000000E+00  0.00000000E+00  0.00000000E+00
  0.00000000E+00  0.00000000E+00  0.00000000E+00
  0.00000000E+00  0.00000000E+00  0.00000000E+00
  0.00000000E+00  0.00000000E+00  0.00000000E+00
  0.00000000E+00  0.00000000E+00  0.00000000E+00
  0.00000000E+00  0.00000000E+00  0.00000000E+00
  0.00000000E+00  0.00000000E+00  0.00000000E+00
  0.00000000E+00  0.00000000E+00  0.00000000E+00
  0.00000000E+00  0.00000000E+00  0.00000000E+00
  0.00000000E+00  0.00000000E+00  0.00000000E+00
  0.00000000E+00  0.00000000E+00  0.00000000E+00
  0.00000000E+00  0.00000000E+00  0.00000000E+00
  0.00000000E+00  0.00000000E+00  0.00000000E+00
  0.00000000E+00  0.00000000E+00  0.00000000E+00
  0.00000000E+00  0.00000000E+00  0.00000000E+00
  0.00000000E+00  0.00000000E+00  0.00000000E+00
  0.00000000E+00  0.00000000E+00  0.00000000E+00
  0.00000000E+00  0.00000000E+00  0.00000000E+00
  0.00000000E+00  0.00000000E+00  0.00000000E+00
  0.00000000E+00  0.00000000E+00  0.00000000E+00
  0.00000000E+00  0.00000000E+00  0.00000000E+00
  0.00000000E+00  0.00000000E+00  0.00000000E+00
  0.00000000E+00  0.00000000E+00  0.00000000E+00
  0.00000000E+00  0.00000000E+00  0.00000000E+00
  0.00000000E+00  0.00000000E+00  0.00000000E+00
  0.00000000E+00  0.00000000E+00  0.00000000E+00
  0.00000000E+00  0.00000000E+00  0.00000000E+00
  0.00000000E+00  0.00000000E+00  0.00000000E+00
  0.00000000E+00  0.00000000E+00  0.00000000E+00
  0.00000000E+00  0.00000000E+00  0.00000000E+00
  0.00000000E+00  0.00000000E+00  0.00000000E+00
  0.00000000E+00  0.00000000E+00  0.00000000E+00
  0.00000000E+00  0.00000000E+00  0.00000000E+00
  0.00000000E+00  0.00000000E+00  0.00000000E+00
  0.00000000E+00  0.00000000E+00  0.00000000E+00
  0.00000000E+00  0.00000000E+00  0.00000000E+00
  0.00000000E+00  0.00000000E+00  0.00000000E+00
  0.00000000E+00  0.00000000E+00  0.00000000E+00
