Mg1 Al2 Cu2
1.0
8.181252 -0.000162 -0.111971
-0.000141 8.135208 0.000147
-0.111972 0.000184 8.180956
Al Cu Mg
2 2 1
Selective dynamics
direct
0.000000 0.000000 0.000000 T T T Al
0.000000 0.500000 0.500000 F F F Al
0.500000 0.000000 0.500000 F F F Cu
0.500000 0.500000 0.000000 F F F Cu
0.000000 0.000000 0.100000 F F F Mg
