POSCAR_00:FCC Al endpoint 1                       
1.0000000000
7.9894616391 0.0000000000 0.0000000000
0.0000000000 7.9894616391 0.0000000000
0.0000000000 0.0000000000 7.9894616391
   Al
31 
D
0.0000000000 0.0000000000 0.5000000000
0.0000000000 0.5000000000 0.0000000000
0.0000000000 0.5000000000 0.5000000000
0.5000000000 0.0000000000 0.0000000000
0.5000000000 0.0000000000 0.5000000000
0.5000000000 0.5000000000 0.0000000000
0.5000000000 0.5000000000 0.5000000000
0.2571982769 0.2571982769 0.0000000000
0.2508485097 0.2508485097 0.5000000000
0.2571982769 0.7428017231 0.0000000000
0.2508485097 0.7491514903 0.5000000000
0.7428017231 0.2571982769 0.0000000000
0.7491514903 0.2508485097 0.5000000000
0.7428017231 0.7428017231 0.0000000000
0.7491514903 0.7491514903 0.5000000000
0.2571982769 0.0000000000 0.2571982769
0.2571982769 0.0000000000 0.7428017231
0.2508485097 0.5000000000 0.2508485097
0.2508485097 0.5000000000 0.7491514903
0.7428017231 0.0000000000 0.2571982769
0.7428017231 0.0000000000 0.7428017231
0.7491514903 0.5000000000 0.2508485097
0.7491514903 0.5000000000 0.7491514903
0.0000000000 0.2571982769 0.2571982769
0.0000000000 0.2571982769 0.7428017231
0.0000000000 0.7428017231 0.2571982769
0.0000000000 0.7428017231 0.7428017231
0.5000000000 0.2508485097 0.2508485097
0.5000000000 0.2508485097 0.7491514903
0.5000000000 0.7491514903 0.2508485097
0.5000000000 0.7491514903 0.7491514903
