Fe3                                     
   1.00000000000000     
     3.5850510000000000    0.0000000000000000    0.0000000000000000
     0.0000000000000000    3.5850510000000000    0.0000000000000000
     0.0000000000000000    0.0000000000000000    3.5850510000000000
   Fe
   3
Direct
  0.0000000000000000  0.2500000000000000  0.2500000000000000
  0.5000000000000000 -0.0392787418920524  0.5392787418920526
  0.5000000000000000  0.5392787418920526 -0.0392787418920524
 
  0.00000000E+00  0.00000000E+00  0.00000000E+00
  0.00000000E+00  0.00000000E+00  0.00000000E+00
  0.00000000E+00  0.00000000E+00  0.00000000E+00
