Al30 Cu1                                
   1.00000000000000     
     8.0870400000000000    0.0000000000000000    0.0000000000000000
     0.0000000000000000    8.0870400000000000    0.0000000000000000
     0.0000000000000000    0.0000000000000000    8.0870400000000000
   Al   Cu
  30   1
Direct
  0.9982979999999984  0.9979099999999974  0.9994980000000027
  0.2543620000000004  0.0103459999999984  0.2543879999999987
  0.2531839999999974  0.2500000000000000  0.0052650000000014
  0.0039390000000026  0.2500000000000000  0.2528549999999967
  0.5007820000000009  0.0035349999999994  0.0041200000000003
  0.7458799999999997  0.0035349999999994  0.2492179999999991
  0.7492390000000029  0.2500000000000000  0.0007609999999971
  0.9982979999999984  0.5020900000000026  0.9994980000000027
  0.2543620000000004  0.4896540000000016  0.2543879999999987
  0.2510880000000029  0.7500000000000000  0.9998330000000024
  0.9972350000000034  0.7500000000000000  0.2481179999999981
  0.5007820000000009  0.4964650000000006  0.0041200000000003
  0.7458799999999997  0.4964650000000006  0.2492179999999991
  0.7510789999999972  0.7500000000000000  0.9989210000000028
  0.5012639999999990  0.7500000000000000  0.2487360000000010
  0.0033570000000012  0.0043209999999974  0.4995469999999997
  0.2504530000000003  0.0043209999999974  0.7466429999999988
  0.0025710000000032  0.2500000000000000  0.7474289999999968
  0.4956120000000013  0.0103459999999984  0.4956379999999996
  0.7505019999999973  0.9979099999999974  0.7517020000000016
  0.7447349999999986  0.2500000000000000  0.4968160000000026
  0.4971450000000033  0.2500000000000000  0.7460609999999974
  0.0033570000000012  0.4956790000000026  0.4995469999999997
  0.2504530000000003  0.4956790000000026  0.7466429999999988
  0.2499680000000026  0.7500000000000000  0.5000319999999974
  0.9981969999999976  0.7500000000000000  0.7518030000000024
  0.4956120000000013  0.4896540000000016  0.4956379999999996
  0.7505019999999973  0.5020900000000026  0.7517020000000016
  0.7501669999999976  0.7500000000000000  0.4989119999999971
  0.5018820000000019  0.7500000000000000  0.7527649999999966
  0.4998190000000022  0.2500000000000000  0.2501809999999978
 
  0.00000000E+00  0.00000000E+00  0.00000000E+00
  0.00000000E+00  0.00000000E+00  0.00000000E+00
  0.00000000E+00  0.00000000E+00  0.00000000E+00
  0.00000000E+00  0.00000000E+00  0.00000000E+00
  0.00000000E+00  0.00000000E+00  0.00000000E+00
  0.00000000E+00  0.00000000E+00  0.00000000E+00
  0.00000000E+00  0.00000000E+00  0.00000000E+00
  0.00000000E+00  0.00000000E+00  0.00000000E+00
  0.00000000E+00  0.00000000E+00  0.00000000E+00
  0.00000000E+00  0.00000000E+00  0.00000000E+00
  0.00000000E+00  0.00000000E+00  0.00000000E+00
  0.00000000E+00  0.00000000E+00  0.00000000E+00
  0.00000000E+00  0.00000000E+00  0.00000000E+00
  0.00000000E+00  0.00000000E+00  0.00000000E+00
  0.00000000E+00  0.00000000E+00  0.00000000E+00
  0.00000000E+00  0.00000000E+00  0.00000000E+00
  0.00000000E+00  0.00000000E+00  0.00000000E+00
  0.00000000E+00  0.00000000E+00  0.00000000E+00
  0.00000000E+00  0.00000000E+00  0.00000000E+00
  0.00000000E+00  0.00000000E+00  0.00000000E+00
  0.00000000E+00  0.00000000E+00  0.00000000E+00
  0.00000000E+00  0.00000000E+00  0.00000000E+00
  0.00000000E+00  0.00000000E+00  0.00000000E+00
  0.00000000E+00  0.00000000E+00  0.00000000E+00
  0.00000000E+00  0.00000000E+00  0.00000000E+00
  0.00000000E+00  0.00000000E+00  0.00000000E+00
  0.00000000E+00  0.00000000E+00  0.00000000E+00
  0.00000000E+00  0.00000000E+00  0.00000000E+00
  0.00000000E+00  0.00000000E+00  0.00000000E+00
  0.00000000E+00  0.00000000E+00  0.00000000E+00
  0.00000000E+00  0.00000000E+00  0.00000000E+00
