Al30 Cu1
1.0
8.087040 0.000000 0.000000
0.000000 8.087040 0.000000
0.000000 0.000000 8.087040
Al Cu
30 1
direct
0.998298 0.997910 0.999498 Al
0.254362 0.010346 0.254388 Al
0.253184 0.250000 0.005265 Al
0.003939 0.250000 0.252855 Al
0.500782 0.003535 0.004120 Al
0.745880 0.003535 0.249218 Al
0.749239 0.250000 0.000761 Al
0.998298 0.502090 0.999498 Al
0.254362 0.489654 0.254388 Al
0.251088 0.750000 0.999833 Al
0.997235 0.750000 0.248118 Al
0.500782 0.496465 0.004120 Al
0.745880 0.496465 0.249218 Al
0.751079 0.750000 -0.001079 Al
0.501264 0.750000 0.248736 Al
0.003357 0.004321 0.499547 Al
0.250453 0.004321 0.746643 Al
0.002571 0.250000 0.747429 Al
0.495612 0.010346 0.495638 Al
0.750502 0.997910 0.751702 Al
0.744735 0.250000 0.496816 Al
0.497145 0.250000 0.746061 Al
0.003357 0.495679 0.499547 Al
0.250453 0.495679 0.746643 Al
0.249968 0.750000 0.500032 Al
-0.001803 0.750000 0.751803 Al
0.495612 0.489654 0.495638 Al
0.750502 0.502090 0.751702 Al
0.750167 0.750000 0.498912 Al
0.501882 0.750000 0.752765 Al
0.499819 0.250000 0.250181 Cu

0.000000 0.000000 0.000000
0.000000 0.000000 0.000000
0.000000 0.000000 0.000000
0.000000 0.000000 0.000000
0.000000 0.000000 0.000000
0.000000 0.000000 0.000000
0.000000 0.000000 0.000000
0.000000 0.000000 0.000000
0.000000 0.000000 0.000000
0.000000 0.000000 0.000000
0.000000 0.000000 0.000000
0.000000 0.000000 0.000000
0.000000 0.000000 0.000000
0.000000 0.000000 0.000000
0.000000 0.000000 0.000000
0.000000 0.000000 0.000000
0.000000 0.000000 0.000000
0.000000 0.000000 0.000000
0.000000 0.000000 0.000000
0.000000 0.000000 0.000000
0.000000 0.000000 0.000000
0.000000 0.000000 0.000000
0.000000 0.000000 0.000000
0.000000 0.000000 0.000000
0.000000 0.000000 0.000000
0.000000 0.000000 0.000000
0.000000 0.000000 0.000000
0.000000 0.000000 0.000000
0.000000 0.000000 0.000000
0.000000 0.000000 0.000000
0.000000 0.000000 0.000000
