POSCAR_02:FCC Al endpoint 1                       
1.0000000000
7.9894616391 0.0000000000 0.0000000000
0.0000000000 7.9894616391 0.0000000000
0.0000000000 0.0000000000 7.9894616391
   Al
31 
D
0.0036080878 0.0036080878 0.5000000000
0.0004331519 0.5076313643 0.0000000000
0.0036080878 0.5044564283 0.5000000000
0.5076313643 0.0004331519 0.0000000000
0.5044564283 0.0036080878 0.5000000000
0.5076313643 0.5076313643 0.0000000000
0.5044564283 0.5044564283 0.5000000000
0.1290322903 0.1290322903 0.0000000000
0.2544565129 0.2544565129 0.5000000000
0.2576313965 0.7504331196 0.0000000000
0.2544565129 0.7536080032 0.5000000000
0.7504331196 0.2576313965 0.0000000000
0.7536080032 0.2544565129 0.5000000000
0.7504331196 0.7504331196 0.0000000000
0.7536080032 0.7536080032 0.5000000000
0.2576313965 0.0004331519 0.2571982446
0.2576313965 0.0004331519 0.7428017554
0.2544565129 0.5076313643 0.2540233611
0.2544565129 0.5076313643 0.7459766389
0.7504331196 0.0036080878 0.2540233087
0.7504331196 0.0036080878 0.7459766913
0.7536080032 0.5044564283 0.2508484251
0.7536080032 0.5044564283 0.7491515749
0.0004331519 0.2576313965 0.2571982446
0.0004331519 0.2576313965 0.7428017554
0.0036080878 0.7504331196 0.2540233087
0.0036080878 0.7504331196 0.7459766913
0.5076313643 0.2544565129 0.2540233611
0.5076313643 0.2544565129 0.7459766389
0.5044564283 0.7536080032 0.2508484251
0.5044564283 0.7536080032 0.7491515749
