ENCUT = 409.821
IBRION = 1
IMAGES = 3
ISIF = 2
ISMEAR = 0
ISPIN = 2
LCHARG = False
LCLIMB = True
LWAVE = False
MAGMOM = 5*5
NPAR = 4
NSW = 191
POTIM = 0.5
PREC = Accurate
SIGMA = 0.05
