Cr4 Fe4 Ni2
1.0
4.000000 0.000000 0.100000
0.100000 4.000000 0.000000
0.000000 0.000000 4.000000
Cr Fe Ni
4 4 2
direct
0.150000 0.000000 0.000000 Cr
0.350000 0.250000 0.150000 Cr
0.000000 0.850000 0.750000 Cr
0.000000 0.600000 0.000000 Cr
0.000000 0.300000 0.000000 Fe
0.300000 0.600000 0.000000 Fe
0.600000 0.300000 0.000000 Fe
0.600000 0.600000 0.000000 Fe
0.450000 0.000000 0.000000 Ni
0.300000 0.300000 0.000000 Ni
