POSCAR_01:Al                            
   1.00000000000000     
    10.9063935957000009    0.0000000000000000    0.0000000000000000
     0.0000000000000000   10.9063935957000009    0.0000000000000000
     0.0000000000000000    0.0000000000000000   10.9063935957000009
   Al   Mg
     1   106
Direct
  0.0048178846862257  0.0000054593135914  0.0105385536479403
  0.0832362127123787  0.9999650859576121  0.2508974790904972
  0.0002580099380936  0.0000056179558925  0.6653722380714271
  0.9986146398535496  0.3379045993090344  0.9975239198353023
  0.9978342969897938  0.3372195383094052  0.3357007602861728
  0.9992690194703684  0.3316305767157175  0.6672785363406533
  0.9986297812039240  0.6620611631516908  0.9974855180345372
  0.9978376671615479  0.6627573494735088  0.3357136257678590
  0.9992916971473491  0.6684084317282881  0.6672674201949675
  0.3297184703206639  0.0000081431968226  0.0039543761923966
  0.3235152958854783  0.0000366478969198  0.3296560160968411
  0.3309486887059165  0.9999654044299930  0.6662151218179559
  0.3334206401350031  0.3326426250529124  0.0008554854704599
  0.3357955681914575  0.3364917786938761  0.3349297672967282
  0.3333336915261995  0.3321811736817111  0.6679751773239246
  0.3333840936079042  0.6673645411675011  0.0008729049344893
  0.3357346868399986  0.6635327102681856  0.3349093807793366
  0.3333202678024563  0.6678179045885742  0.6679448638003507
  0.6669236519376369  0.9999942288008157  0.0025646443312155
  0.6676693633956887  0.9999941715638627  0.3335442790777208
  0.6661027599948142  0.9999461007746788  0.6666845765362979
  0.6641768095935987  0.3327879059829115  0.0002034221581226
  0.6653646115191805  0.3318851048534484  0.3348274816782535
  0.6656282512478526  0.3320892066207719  0.6669475641541709
  0.6641738624558187  0.6672403202351020  0.0002364246561086
  0.6653598104417142  0.6681419711703427  0.3348475500700303
  0.6656295824005838  0.6678871747925044  0.6669369214315921
  0.9963863275321998  0.1813994863309887  0.1646655142481848
  0.0000136112084448  0.1655040149686684  0.4971704059606239
  0.9998519612658470  0.1661245378105534  0.8356406123624751
  0.9984727961967863  0.5000331201133577  0.1671546879354722
  0.9985757196025560  0.5000018883344168  0.5030561816739905
  0.9989383198026047  0.4999850112165092  0.8307987122794174
  0.9963388132696736  0.8185409481290904  0.1646512697078819
  0.0000296342318435  0.8345597993810117  0.4971612586017642
  0.9998781989972727  0.8338908178378190  0.8356623884149670
  0.3293863574189047  0.1659302394033446  0.1684785138235014
  0.3321426497791578  0.1662278521605458  0.5002872322602485
  0.3319523412467902  0.1655160406790657  0.8346651876658129
  0.3351335132714226  0.5000062150214646  0.1671541186758816
  0.3344347336813840  0.5000140205040395  0.5025673578394674
  0.3335475479299106  0.4999940823786702  0.8339905078489167
  0.3293729610672429  0.8341386999967852  0.1684889821409215
  0.3320870872360118  0.8338078936028381  0.5002425160414461
  0.3319303083751208  0.8344507347432000  0.8346939751869158
  0.6674791039605950  0.1653973513428966  0.1684570084072945
  0.6667028008201967  0.1650682679264577  0.4997481883066328
  0.6654918613162693  0.1655832418368774  0.8337951664431955
  0.6627958991658502  0.4999778777180666  0.1675286198164798
  0.6657861915023346  0.5000026815157526  0.5014983780249125
  0.6648388941671044  0.5000178108573721  0.8330924374285331
  0.6675003611215686  0.8346268867522397  0.1684856952111957
  0.6667217496392297  0.8348999384353064  0.4997388566340177
  0.6654927272689974  0.8343797876784080  0.8338025288930666
  0.1618032752932095  0.0000387976837715  0.4918567211271423
  0.1655212091775908  0.9999937507572056  0.8363325826056425
  0.1675380036523251  0.3374943256121412  0.1664604246776165
  0.1665470380021645  0.3363869804977995  0.5038927120285166
  0.1666437222840145  0.3323197707860075  0.8331946640626668
  0.1675415124948572  0.6624904276846024  0.1664607267569238
  0.1665265422311819  0.6636320263625208  0.5038340316844554
  0.1666613758366111  0.6677010624452890  0.8332051447496482
  0.4975421324271565  0.0000030167564873  0.1685715271332100
  0.4977706352625404  0.9999621921597850  0.4989890705604694
  0.4986850727439389  0.9999511813091928  0.8345845302423527
  0.4995111330509800  0.3316103078181740  0.1678380328443652
  0.5000042424391893  0.3320020223488314  0.5013324626659355
  0.4990307154335127  0.3322420514139850  0.8338716065702982
  0.4994969056302452  0.6684251147256646  0.1678594553754920
  0.4999611976340645  0.6680019852019967  0.5013303447018274
  0.4990120412809844  0.6677330648691253  0.8338785988453452
  0.8406190985697322  0.0000166224573661  0.1723012239529282
  0.8354086385051929  0.0000062609481901  0.4977382106325408
  0.8338832177687436  0.9999952314352427  0.8354120897876314
  0.8289993858380740  0.3372328015273638  0.1672199222164679
  0.8324811109999857  0.3320866365437851  0.5010592224596948
  0.8315517462848874  0.3327389136259740  0.8325566085872467
  0.8289448835019684  0.6627277974150374  0.1672427845565920
  0.8324977349733302  0.6679299767353797  0.5010316251576654
  0.8315773159712734  0.6672886719970563  0.8325611123703496
  0.1662893561372698  0.1676927581598449  0.0037298058262465
  0.1686648146951626  0.1809689116867474  0.3368866733403948
  0.1655731533744103  0.1648710919332004  0.6657529092734933
  0.1674518428434482  0.4999766604808471  0.9985869666301923
  0.1667492095298968  0.4999542354955366  0.3352770347312912
  0.1667739292554913  0.5000502051476801  0.6691279177360911
  0.1662662566547652  0.8323238861355691  0.0038039273597974
  0.1686521170840223  0.8190224516112110  0.3368757414475283
  0.1655754394196052  0.8351317169180064  0.6657379525538687
  0.4984606261051852  0.1652098224129261  0.0019967734006983
  0.4975350223528636  0.1648062739755076  0.3338141267638690
  0.4989227511777017  0.1650898321579035  0.6669390132191424
  0.4988764283875966  0.5000252943673118  0.0003752267559207
  0.5013436221344634  0.5000515401604204  0.3351244876452171
  0.4995614446428007  0.4999863583235467  0.6676162988648855
  0.4984496061193582  0.8347742346548159  0.0020160640187399
  0.4975090170947709  0.8351976069104978  0.3338180728674018
  0.4988889649537214  0.8348070812158213  0.6669225948549524
  0.8316418196788931  0.1677543401148043  0.0008426451205565
  0.8356909383681170  0.1661565501597195  0.3334771673060501
  0.8335785416526491  0.1651125238520024  0.6666257267364060
  0.8299329097132855  0.4999954355741352  0.9986426435821514
  0.8302410706531873  0.4999810872521238  0.3356535497546815
  0.8318219826270976  0.5000276268146777  0.6667153159499009
  0.8316568826378230  0.8322399543369059  0.0008637959435092
  0.8357490146908262  0.8338614493783467  0.3334647362048386
  0.8335986253851502  0.8348758959831173  0.6666241457680400
 
  0.00000000E+00  0.00000000E+00  0.00000000E+00
  0.00000000E+00  0.00000000E+00  0.00000000E+00
  0.00000000E+00  0.00000000E+00  0.00000000E+00
  0.00000000E+00  0.00000000E+00  0.00000000E+00
  0.00000000E+00  0.00000000E+00  0.00000000E+00
  0.00000000E+00  0.00000000E+00  0.00000000E+00
  0.00000000E+00  0.00000000E+00  0.00000000E+00
  0.00000000E+00  0.00000000E+00  0.00000000E+00
  0.00000000E+00  0.00000000E+00  0.00000000E+00
  0.00000000E+00  0.00000000E+00  0.00000000E+00
  0.00000000E+00  0.00000000E+00  0.00000000E+00
  0.00000000E+00  0.00000000E+00  0.00000000E+00
  0.00000000E+00  0.00000000E+00  0.00000000E+00
  0.00000000E+00  0.00000000E+00  0.00000000E+00
  0.00000000E+00  0.00000000E+00  0.00000000E+00
  0.00000000E+00  0.00000000E+00  0.00000000E+00
  0.00000000E+00  0.00000000E+00  0.00000000E+00
  0.00000000E+00  0.00000000E+00  0.00000000E+00
  0.00000000E+00  0.00000000E+00  0.00000000E+00
  0.00000000E+00  0.00000000E+00  0.00000000E+00
  0.00000000E+00  0.00000000E+00  0.00000000E+00
  0.00000000E+00  0.00000000E+00  0.00000000E+00
  0.00000000E+00  0.00000000E+00  0.00000000E+00
  0.00000000E+00  0.00000000E+00  0.00000000E+00
  0.00000000E+00  0.00000000E+00  0.00000000E+00
  0.00000000E+00  0.00000000E+00  0.00000000E+00
  0.00000000E+00  0.00000000E+00  0.00000000E+00
  0.00000000E+00  0.00000000E+00  0.00000000E+00
  0.00000000E+00  0.00000000E+00  0.00000000E+00
  0.00000000E+00  0.00000000E+00  0.00000000E+00
  0.00000000E+00  0.00000000E+00  0.00000000E+00
  0.00000000E+00  0.00000000E+00  0.00000000E+00
  0.00000000E+00  0.00000000E+00  0.00000000E+00
  0.00000000E+00  0.00000000E+00  0.00000000E+00
  0.00000000E+00  0.00000000E+00  0.00000000E+00
  0.00000000E+00  0.00000000E+00  0.00000000E+00
  0.00000000E+00  0.00000000E+00  0.00000000E+00
  0.00000000E+00  0.00000000E+00  0.00000000E+00
  0.00000000E+00  0.00000000E+00  0.00000000E+00
  0.00000000E+00  0.00000000E+00  0.00000000E+00
  0.00000000E+00  0.00000000E+00  0.00000000E+00
  0.00000000E+00  0.00000000E+00  0.00000000E+00
  0.00000000E+00  0.00000000E+00  0.00000000E+00
  0.00000000E+00  0.00000000E+00  0.00000000E+00
  0.00000000E+00  0.00000000E+00  0.00000000E+00
  0.00000000E+00  0.00000000E+00  0.00000000E+00
  0.00000000E+00  0.00000000E+00  0.00000000E+00
  0.00000000E+00  0.00000000E+00  0.00000000E+00
  0.00000000E+00  0.00000000E+00  0.00000000E+00
  0.00000000E+00  0.00000000E+00  0.00000000E+00
  0.00000000E+00  0.00000000E+00  0.00000000E+00
  0.00000000E+00  0.00000000E+00  0.00000000E+00
  0.00000000E+00  0.00000000E+00  0.00000000E+00
  0.00000000E+00  0.00000000E+00  0.00000000E+00
  0.00000000E+00  0.00000000E+00  0.00000000E+00
  0.00000000E+00  0.00000000E+00  0.00000000E+00
  0.00000000E+00  0.00000000E+00  0.00000000E+00
  0.00000000E+00  0.00000000E+00  0.00000000E+00
  0.00000000E+00  0.00000000E+00  0.00000000E+00
  0.00000000E+00  0.00000000E+00  0.00000000E+00
  0.00000000E+00  0.00000000E+00  0.00000000E+00
  0.00000000E+00  0.00000000E+00  0.00000000E+00
  0.00000000E+00  0.00000000E+00  0.00000000E+00
  0.00000000E+00  0.00000000E+00  0.00000000E+00
  0.00000000E+00  0.00000000E+00  0.00000000E+00
  0.00000000E+00  0.00000000E+00  0.00000000E+00
  0.00000000E+00  0.00000000E+00  0.00000000E+00
  0.00000000E+00  0.00000000E+00  0.00000000E+00
  0.00000000E+00  0.00000000E+00  0.00000000E+00
  0.00000000E+00  0.00000000E+00  0.00000000E+00
  0.00000000E+00  0.00000000E+00  0.00000000E+00
  0.00000000E+00  0.00000000E+00  0.00000000E+00
  0.00000000E+00  0.00000000E+00  0.00000000E+00
  0.00000000E+00  0.00000000E+00  0.00000000E+00
  0.00000000E+00  0.00000000E+00  0.00000000E+00
  0.00000000E+00  0.00000000E+00  0.00000000E+00
  0.00000000E+00  0.00000000E+00  0.00000000E+00
  0.00000000E+00  0.00000000E+00  0.00000000E+00
  0.00000000E+00  0.00000000E+00  0.00000000E+00
  0.00000000E+00  0.00000000E+00  0.00000000E+00
  0.00000000E+00  0.00000000E+00  0.00000000E+00
  0.00000000E+00  0.00000000E+00  0.00000000E+00
  0.00000000E+00  0.00000000E+00  0.00000000E+00
  0.00000000E+00  0.00000000E+00  0.00000000E+00
  0.00000000E+00  0.00000000E+00  0.00000000E+00
  0.00000000E+00  0.00000000E+00  0.00000000E+00
  0.00000000E+00  0.00000000E+00  0.00000000E+00
  0.00000000E+00  0.00000000E+00  0.00000000E+00
  0.00000000E+00  0.00000000E+00  0.00000000E+00
  0.00000000E+00  0.00000000E+00  0.00000000E+00
  0.00000000E+00  0.00000000E+00  0.00000000E+00
  0.00000000E+00  0.00000000E+00  0.00000000E+00
  0.00000000E+00  0.00000000E+00  0.00000000E+00
  0.00000000E+00  0.00000000E+00  0.00000000E+00
  0.00000000E+00  0.00000000E+00  0.00000000E+00
  0.00000000E+00  0.00000000E+00  0.00000000E+00
  0.00000000E+00  0.00000000E+00  0.00000000E+00
  0.00000000E+00  0.00000000E+00  0.00000000E+00
  0.00000000E+00  0.00000000E+00  0.00000000E+00
  0.00000000E+00  0.00000000E+00  0.00000000E+00
  0.00000000E+00  0.00000000E+00  0.00000000E+00
  0.00000000E+00  0.00000000E+00  0.00000000E+00
  0.00000000E+00  0.00000000E+00  0.00000000E+00
  0.00000000E+00  0.00000000E+00  0.00000000E+00
  0.00000000E+00  0.00000000E+00  0.00000000E+00
  0.00000000E+00  0.00000000E+00  0.00000000E+00
  0.00000000E+00  0.00000000E+00  0.00000000E+00
