POSCAR_01:Al                            
   1.00000000000000     
    10.9063935957000009    0.0000000000000000    0.0000000000000000
     0.0000000000000000   10.9063935957000009    0.0000000000000000
     0.0000000000000000    0.0000000000000000   10.9063935957000009
   Al   Mg
     1   106
Direct
  0.0048178846862233  1.0000054593135939  0.0105385536479404
  0.0832362127123755 -0.0000349140423866  0.2508974790904960
  1.0002580099380960  1.0000056179558898  0.6653722380714296
  0.9986146398535473  0.3379045993090365 -0.0024760801646984
  0.9978342969897915  0.3372195383094055  0.3357007602861709
  0.9992690194703684  0.3316305767157143  0.6672785363406515
  0.9986297812039252  0.6620611631516919 -0.0025144819654595
  0.9978376671615462  0.6627573494735076  0.3357136257678607
  0.9992916971473511  0.6684084317282905  0.6672674201949700
  0.3297184703206666  1.0000081431968191  0.0039543761923975
  0.3235152958854757  1.0000366478969192  0.3296560160968445
  0.3309486887059201  0.9999654044299917  0.6662151218179525
  0.3334206401350058  0.3326426250529156  0.0008554854704591
  0.3357955681914568  0.3364917786938741  0.3349297672967259
  0.3333336915262003  0.3321811736817106  0.6679751773239269
  0.3333840936079016  0.6673645411675008  0.0008729049344908
  0.3357346868399974  0.6635327102681855  0.3349093807793367
  0.3333202678024557  0.6678179045885714  0.6679448638003480
  0.6669236519376346  0.9999942288008171  0.0025646443312152
  0.6676693633956912  0.9999941715638659  0.3335442790777224
  0.6661027599948174  0.9999461007746787  0.6666845765363008
  0.6641768095935959  0.3327879059829082  0.0002034221581211
  0.6653646115191789  0.3318851048534512  0.3348274816782532
  0.6656282512478549  0.3320892066207745  0.6669475641541713
  0.6641738624558176  0.6672403202350990  0.0002364246561096
  0.6653598104417152  0.6681419711703445  0.3348475500700310
  0.6656295824005846  0.6678871747925056  0.6669369214315913
 -0.0036136724677973  0.1813994863309886  0.1646655142481828
  1.0000136112084441  0.1655040149686705  0.4971704059606267
  0.9998519612658456  0.1661245378105563  0.8356406123624744
  0.9984727961967893  0.5000331201133558  0.1671546879354738
  0.9985757196025562  0.5000018883344144  0.5030561816739907
  0.9989383198026079  0.4999850112165069  0.8307987122794146
 -0.0036611867303261  0.8185409481290932  0.1646512697078824
  1.0000296342318462  0.8345597993810107  0.4971612586017625
  0.9998781989972737  0.8338908178378189  0.8356623884149686
  0.3293863574189029  0.1659302394033434  0.1684785138235038
  0.3321426497791595  0.1662278521605490  0.5002872322602463
  0.3319523412467891  0.1655160406790627  0.8346651876658143
  0.3351335132714234  0.5000062150214626  0.1671541186758794
  0.3344347336813824  0.5000140205040368  0.5025673578394700
  0.3335475479299096  0.4999940823786718  0.8339905078489185
  0.3293729610672407  0.8341386999967820  0.1684889821409215
  0.3320870872360123  0.8338078936028388  0.5002425160414495
  0.3319303083751179  0.8344507347431976  0.8346939751869141
  0.6674791039605916  0.1653973513428998  0.1684570084072928
  0.6667028008201960  0.1650682679264587  0.4997481883066340
  0.6654918613162661  0.1655832418368766  0.8337951664431970
  0.6627958991658472  0.4999778777180661  0.1675286198164824
  0.6657861915023368  0.5000026815157496  0.5014983780249143
  0.6648388941671046  0.5000178108573691  0.8330924374285334
  0.6675003611215659  0.8346268867522380  0.1684856952111971
  0.6667217496392301  0.8348999384353082  0.4997388566340152
  0.6654927272689976  0.8343797876784101  0.8338025288930700
  0.1618032752932073  1.0000387976837732  0.4918567211271416
  0.1655212091775903  0.9999937507572048  0.8363325826056437
  0.1675380036523235  0.3374943256121415  0.1664604246776160
  0.1665470380021665  0.3363869804978018  0.5038927120285138
  0.1666437222840120  0.3323197707860092  0.8331946640626677
  0.1675415124948596  0.6624904276846042  0.1664607267569220
  0.1665265422311853  0.6636320263625213  0.5038340316844560
  0.1666613758366106  0.6677010624452887  0.8332051447496455
  0.4975421324271542  1.0000030167564884  0.1685715271332125
  0.4977706352625423  0.9999621921597862  0.4989890705604668
  0.4986850727439389  0.9999511813091916  0.8345845302423491
  0.4995111330509799  0.3316103078181735  0.1678380328443636
  0.5000042424391922  0.3320020223488299  0.5013324626659358
  0.4990307154335107  0.3322420514139878  0.8338716065703015
  0.4994969056302455  0.6684251147256646  0.1678594553754920
  0.4999611976340633  0.6680019852019952  0.5013303447018271
  0.4990120412809854  0.6677330648691228  0.8338785988453431
  0.8406190985697322  1.0000166224573668  0.1723012239529300
  0.8354086385051911  1.0000062609481923  0.4977382106325411
  0.8338832177687452  0.9999952314352401  0.8354120897876313
  0.8289993858380733  0.3372328015273645  0.1672199222164650
  0.8324811109999875  0.3320866365437875  0.5010592224596961
  0.8315517462848894  0.3327389136259730  0.8325566085872496
  0.8289448835019667  0.6627277974150342  0.1672427845565919
  0.8324977349733284  0.6679299767353777  0.5010316251576679
  0.8315773159712745  0.6672886719970571  0.8325611123703485
  0.1662893561372704  0.1676927581598467  0.0037298058262434
  0.1686648146951614  0.1809689116867510  0.3368866733403927
  0.1655731533744108  0.1648710919332003  0.6657529092734911
  0.1674518428434455  0.4999766604808447 -0.0014130333698077
  0.1667492095298949  0.4999542354955373  0.3352770347312938
  0.1667739292554903  0.5000502051476808  0.6691279177360938
  0.1662662566547621  0.8323238861355710  0.0038039273597956
  0.1686521170840231  0.8190224516112138  0.3368757414475318
  0.1655754394196085  0.8351317169180080  0.6657379525538697
  0.4984606261051882  0.1652098224129228  0.0019967734007010
  0.4975350223528627  0.1648062739755090  0.3338141267638705
  0.4989227511777026  0.1650898321579040  0.6669390132191451
  0.4988764283875987  0.5000252943673106  0.0003752267559231
  0.5013436221344614  0.5000515401604184  0.3351244876452180
  0.4995614446428012  0.4999863583235445  0.6676162988648890
  0.4984496061193575  0.8347742346548152  0.0020160640187425
  0.4975090170947684  0.8351976069104948  0.3338180728674030
  0.4988889649537246  0.8348070812158247  0.6669225948549509
  0.8316418196788936  0.1677543401148027  0.0008426451205537
  0.8356909383681143  0.1661565501597226  0.3334771673060483
  0.8335785416526464  0.1651125238520023  0.6666257267364089
  0.8299329097132850  0.4999954355741342 -0.0013573564178472
  0.8302410706531905  0.4999810872521253  0.3356535497546782
  0.8318219826270959  0.5000276268146781  0.6667153159498983
  0.8316568826378232  0.8322399543369090  0.0008637959435090
  0.8357490146908283  0.8338614493783438  0.3334647362048413
  0.8335986253851532  0.8348758959831141  0.6666241457680379
 
  0.00000000E+00  0.00000000E+00  0.00000000E+00
  0.00000000E+00  0.00000000E+00  0.00000000E+00
  0.00000000E+00  0.00000000E+00  0.00000000E+00
  0.00000000E+00  0.00000000E+00  0.00000000E+00
  0.00000000E+00  0.00000000E+00  0.00000000E+00
  0.00000000E+00  0.00000000E+00  0.00000000E+00
  0.00000000E+00  0.00000000E+00  0.00000000E+00
  0.00000000E+00  0.00000000E+00  0.00000000E+00
  0.00000000E+00  0.00000000E+00  0.00000000E+00
  0.00000000E+00  0.00000000E+00  0.00000000E+00
  0.00000000E+00  0.00000000E+00  0.00000000E+00
  0.00000000E+00  0.00000000E+00  0.00000000E+00
  0.00000000E+00  0.00000000E+00  0.00000000E+00
  0.00000000E+00  0.00000000E+00  0.00000000E+00
  0.00000000E+00  0.00000000E+00  0.00000000E+00
  0.00000000E+00  0.00000000E+00  0.00000000E+00
  0.00000000E+00  0.00000000E+00  0.00000000E+00
  0.00000000E+00  0.00000000E+00  0.00000000E+00
  0.00000000E+00  0.00000000E+00  0.00000000E+00
  0.00000000E+00  0.00000000E+00  0.00000000E+00
  0.00000000E+00  0.00000000E+00  0.00000000E+00
  0.00000000E+00  0.00000000E+00  0.00000000E+00
  0.00000000E+00  0.00000000E+00  0.00000000E+00
  0.00000000E+00  0.00000000E+00  0.00000000E+00
  0.00000000E+00  0.00000000E+00  0.00000000E+00
  0.00000000E+00  0.00000000E+00  0.00000000E+00
  0.00000000E+00  0.00000000E+00  0.00000000E+00
  0.00000000E+00  0.00000000E+00  0.00000000E+00
  0.00000000E+00  0.00000000E+00  0.00000000E+00
  0.00000000E+00  0.00000000E+00  0.00000000E+00
  0.00000000E+00  0.00000000E+00  0.00000000E+00
  0.00000000E+00  0.00000000E+00  0.00000000E+00
  0.00000000E+00  0.00000000E+00  0.00000000E+00
  0.00000000E+00  0.00000000E+00  0.00000000E+00
  0.00000000E+00  0.00000000E+00  0.00000000E+00
  0.00000000E+00  0.00000000E+00  0.00000000E+00
  0.00000000E+00  0.00000000E+00  0.00000000E+00
  0.00000000E+00  0.00000000E+00  0.00000000E+00
  0.00000000E+00  0.00000000E+00  0.00000000E+00
  0.00000000E+00  0.00000000E+00  0.00000000E+00
  0.00000000E+00  0.00000000E+00  0.00000000E+00
  0.00000000E+00  0.00000000E+00  0.00000000E+00
  0.00000000E+00  0.00000000E+00  0.00000000E+00
  0.00000000E+00  0.00000000E+00  0.00000000E+00
  0.00000000E+00  0.00000000E+00  0.00000000E+00
  0.00000000E+00  0.00000000E+00  0.00000000E+00
  0.00000000E+00  0.00000000E+00  0.00000000E+00
  0.00000000E+00  0.00000000E+00  0.00000000E+00
  0.00000000E+00  0.00000000E+00  0.00000000E+00
  0.00000000E+00  0.00000000E+00  0.00000000E+00
  0.00000000E+00  0.00000000E+00  0.00000000E+00
  0.00000000E+00  0.00000000E+00  0.00000000E+00
  0.00000000E+00  0.00000000E+00  0.00000000E+00
  0.00000000E+00  0.00000000E+00  0.00000000E+00
  0.00000000E+00  0.00000000E+00  0.00000000E+00
  0.00000000E+00  0.00000000E+00  0.00000000E+00
  0.00000000E+00  0.00000000E+00  0.00000000E+00
  0.00000000E+00  0.00000000E+00  0.00000000E+00
  0.00000000E+00  0.00000000E+00  0.00000000E+00
  0.00000000E+00  0.00000000E+00  0.00000000E+00
  0.00000000E+00  0.00000000E+00  0.00000000E+00
  0.00000000E+00  0.00000000E+00  0.00000000E+00
  0.00000000E+00  0.00000000E+00  0.00000000E+00
  0.00000000E+00  0.00000000E+00  0.00000000E+00
  0.00000000E+00  0.00000000E+00  0.00000000E+00
  0.00000000E+00  0.00000000E+00  0.00000000E+00
  0.00000000E+00  0.00000000E+00  0.00000000E+00
  0.00000000E+00  0.00000000E+00  0.00000000E+00
  0.00000000E+00  0.00000000E+00  0.00000000E+00
  0.00000000E+00  0.00000000E+00  0.00000000E+00
  0.00000000E+00  0.00000000E+00  0.00000000E+00
  0.00000000E+00  0.00000000E+00  0.00000000E+00
  0.00000000E+00  0.00000000E+00  0.00000000E+00
  0.00000000E+00  0.00000000E+00  0.00000000E+00
  0.00000000E+00  0.00000000E+00  0.00000000E+00
  0.00000000E+00  0.00000000E+00  0.00000000E+00
  0.00000000E+00  0.00000000E+00  0.00000000E+00
  0.00000000E+00  0.00000000E+00  0.00000000E+00
  0.00000000E+00  0.00000000E+00  0.00000000E+00
  0.00000000E+00  0.00000000E+00  0.00000000E+00
  0.00000000E+00  0.00000000E+00  0.00000000E+00
  0.00000000E+00  0.00000000E+00  0.00000000E+00
  0.00000000E+00  0.00000000E+00  0.00000000E+00
  0.00000000E+00  0.00000000E+00  0.00000000E+00
  0.00000000E+00  0.00000000E+00  0.00000000E+00
  0.00000000E+00  0.00000000E+00  0.00000000E+00
  0.00000000E+00  0.00000000E+00  0.00000000E+00
  0.00000000E+00  0.00000000E+00  0.00000000E+00
  0.00000000E+00  0.00000000E+00  0.00000000E+00
  0.00000000E+00  0.00000000E+00  0.00000000E+00
  0.00000000E+00  0.00000000E+00  0.00000000E+00
  0.00000000E+00  0.00000000E+00  0.00000000E+00
  0.00000000E+00  0.00000000E+00  0.00000000E+00
  0.00000000E+00  0.00000000E+00  0.00000000E+00
  0.00000000E+00  0.00000000E+00  0.00000000E+00
  0.00000000E+00  0.00000000E+00  0.00000000E+00
  0.00000000E+00  0.00000000E+00  0.00000000E+00
  0.00000000E+00  0.00000000E+00  0.00000000E+00
  0.00000000E+00  0.00000000E+00  0.00000000E+00
  0.00000000E+00  0.00000000E+00  0.00000000E+00
  0.00000000E+00  0.00000000E+00  0.00000000E+00
  0.00000000E+00  0.00000000E+00  0.00000000E+00
  0.00000000E+00  0.00000000E+00  0.00000000E+00
  0.00000000E+00  0.00000000E+00  0.00000000E+00
  0.00000000E+00  0.00000000E+00  0.00000000E+00
  0.00000000E+00  0.00000000E+00  0.00000000E+00
  0.00000000E+00  0.00000000E+00  0.00000000E+00
