IBRION=3
MAGMOM=-1 -2 3 1 2 3 1 2 7 8 7 8 7 8 7 8 5 4 3 2 1 1 2 3 4 5 -5 -4 -3 -2 -1 1 2 3 4 5 4 4 4 -4
ENCUT=551.8815
