Mg1 Al30
1.0
8.087052 0.000000 0.000000
0.000000 8.087052 0.000000
0.000000 0.000000 8.087052
Al Mg
30 1
direct
0.991217 0.000000 0.991217 Al
0.252786 0.000000 0.252786 Al
0.248478 0.248205 -0.001491 Al
-0.001491 0.248205 0.248478 Al
0.503667 0.000000 0.988703 Al
0.761297 0.000000 0.246334 Al
0.753241 0.239032 0.996759 Al
0.516224 0.219089 0.233776 Al
-0.006499 0.500000 -0.006499 Al
0.248478 0.751795 -0.001491 Al
-0.001491 0.751795 0.248478 Al
0.508003 0.500000 0.005710 Al
0.744289 0.500000 0.241994 Al
0.753241 0.760969 0.996759 Al
0.516224 0.780911 0.233776 Al
0.988703 0.000000 0.503667 Al
0.246334 0.000000 0.761297 Al
0.233776 0.219089 0.516224 Al
0.996759 0.239032 0.753241 Al
0.497214 0.000000 0.497214 Al
0.758783 0.000000 0.758783 Al
0.751491 0.248205 0.501524 Al
0.501524 0.248205 0.751491 Al
0.005710 0.500000 0.508003 Al
0.241994 0.500000 0.744289 Al
0.233776 0.780911 0.516224 Al
0.996759 0.760969 0.753241 Al
0.756500 0.500000 0.756500 Al
0.751491 0.751795 0.501524 Al
0.501524 0.751795 0.751491 Al
0.375004 0.500000 0.375004 Mg

0.000000 0.000000 0.000000
0.000000 0.000000 0.000000
0.000000 0.000000 0.000000
0.000000 0.000000 0.000000
0.000000 0.000000 0.000000
0.000000 0.000000 0.000000
0.000000 0.000000 0.000000
0.000000 0.000000 0.000000
0.000000 0.000000 0.000000
0.000000 0.000000 0.000000
0.000000 0.000000 0.000000
0.000000 0.000000 0.000000
0.000000 0.000000 0.000000
0.000000 0.000000 0.000000
0.000000 0.000000 0.000000
0.000000 0.000000 0.000000
0.000000 0.000000 0.000000
0.000000 0.000000 0.000000
0.000000 0.000000 0.000000
0.000000 0.000000 0.000000
0.000000 0.000000 0.000000
0.000000 0.000000 0.000000
0.000000 0.000000 0.000000
0.000000 0.000000 0.000000
0.000000 0.000000 0.000000
0.000000 0.000000 0.000000
0.000000 0.000000 0.000000
0.000000 0.000000 0.000000
0.000000 0.000000 0.000000
0.000000 0.000000 0.000000
0.000000 0.000000 0.000000
