Al31                                    
   1.00000000000000     
     8.0870540000000002    0.0000000000000000    0.0000000000000000
     0.0000000000000000    8.0870540000000002    0.0000000000000000
     0.0000000000000000    0.0000000000000000    8.0870540000000002
   Al
  31
Selective dynamics
Direct
  0.0000000000000000  0.0000000000000000  0.0000000000000000   F   F   F
  0.2494519999999980  0.0000000000000000  0.2494519999999980   F   F   F
  0.2494519999999980  0.2494519999999980  0.0000000000000000   F   F   F
  0.0000000000000000  0.2494519999999980  0.2494519999999980   F   F   F
  0.5000000000000000  0.0000000000000000  0.0000000000000000   F   F   F
  0.7505480000000020  0.0000000000000000  0.2494519999999980   F   F   F
  0.7505480000000020  0.2494519999999980  0.0000000000000000   F   F   F
  0.5000000000000000  0.2532210000000035  0.2532210000000035   F   F   F
  0.0000000000000000  0.5000000000000000  0.0000000000000000   F   F   F
  0.2532210000000034  0.4999999999999999  0.2513661836478435   T   T   T
  0.2494519999999980  0.7505480000000020  0.0000000000000000   F   F   F
  0.0000000000000000  0.7505480000000020  0.2494519999999980   F   F   F
  0.5000000000000000  0.5000000000000000  0.0000000000000000   F   F   F
  0.7467789999999965  0.5000000000000000  0.2532210000000035   F   F   F
  0.7505480000000020  0.7505480000000020  0.0000000000000000   F   F   F
  0.5000000000000000  0.7467789999999965  0.2532210000000035   F   F   F
  0.0000000000000000  0.0000000000000000  0.5000000000000000   F   F   F
  0.2494519999999980  0.0000000000000000  0.7505480000000020   F   F   F
  0.2532210000000035  0.2532210000000035  0.5000000000000000   F   F   F
  0.0000000000000000  0.2494519999999980  0.7505480000000020   F   F   F
  0.5000000000000000  0.0000000000000000  0.5000000000000000   F   F   F
  0.7505480000000020  0.0000000000000000  0.7505480000000020   F   F   F
  0.7467789999999965  0.2532210000000035  0.5000000000000000   F   F   F
  0.5000000000000000  0.2532210000000035  0.7467789999999965   F   F   F
  0.0000000000000000  0.5000000000000000  0.5000000000000000   F   F   F
  0.2532210000000035  0.5000000000000000  0.7467789999999965   F   F   F
  0.2532210000000035  0.7467789999999965  0.5000000000000000   F   F   F
  0.0000000000000000  0.7505480000000020  0.7505480000000020   F   F   F
  0.7467789999999965  0.5000000000000000  0.7467789999999965   F   F   F
  0.7467789999999965  0.7467789999999965  0.5000000000000000   F   F   F
  0.5000000000000000  0.7467789999999965  0.7467789999999965   F   F   F
 
  0.00000000E+00  0.00000000E+00  0.00000000E+00
  0.00000000E+00  0.00000000E+00  0.00000000E+00
  0.00000000E+00  0.00000000E+00  0.00000000E+00
  0.00000000E+00  0.00000000E+00  0.00000000E+00
  0.00000000E+00  0.00000000E+00  0.00000000E+00
  0.00000000E+00  0.00000000E+00  0.00000000E+00
  0.00000000E+00  0.00000000E+00  0.00000000E+00
  0.00000000E+00  0.00000000E+00  0.00000000E+00
  0.00000000E+00  0.00000000E+00  0.00000000E+00
  0.00000000E+00  0.00000000E+00  0.00000000E+00
  0.00000000E+00  0.00000000E+00  0.00000000E+00
  0.00000000E+00  0.00000000E+00  0.00000000E+00
  0.00000000E+00  0.00000000E+00  0.00000000E+00
  0.00000000E+00  0.00000000E+00  0.00000000E+00
  0.00000000E+00  0.00000000E+00  0.00000000E+00
  0.00000000E+00  0.00000000E+00  0.00000000E+00
  0.00000000E+00  0.00000000E+00  0.00000000E+00
  0.00000000E+00  0.00000000E+00  0.00000000E+00
  0.00000000E+00  0.00000000E+00  0.00000000E+00
  0.00000000E+00  0.00000000E+00  0.00000000E+00
  0.00000000E+00  0.00000000E+00  0.00000000E+00
  0.00000000E+00  0.00000000E+00  0.00000000E+00
  0.00000000E+00  0.00000000E+00  0.00000000E+00
  0.00000000E+00  0.00000000E+00  0.00000000E+00
  0.00000000E+00  0.00000000E+00  0.00000000E+00
  0.00000000E+00  0.00000000E+00  0.00000000E+00
  0.00000000E+00  0.00000000E+00  0.00000000E+00
  0.00000000E+00  0.00000000E+00  0.00000000E+00
  0.00000000E+00  0.00000000E+00  0.00000000E+00
  0.00000000E+00  0.00000000E+00  0.00000000E+00
  0.00000000E+00  0.00000000E+00  0.00000000E+00
