Al31
1.0
8.087054 0.000000 0.000000
0.000000 8.087054 0.000000
0.000000 0.000000 8.087054
Al
31
direct
0.000000 0.000000 0.000000 Al
0.249452 0.000000 0.249452 Al
0.249452 0.249452 0.000000 Al
0.000000 0.249452 0.249452 Al
0.500000 0.000000 0.000000 Al
0.750548 0.000000 0.249452 Al
0.750548 0.249452 0.000000 Al
0.500000 0.253221 0.253221 Al
0.000000 0.500000 0.000000 Al
0.253221 0.500000 0.253221 Al
0.249452 0.750548 0.000000 Al
0.000000 0.750548 0.249452 Al
0.500000 0.500000 0.000000 Al
0.746779 0.500000 0.253221 Al
0.750548 0.750548 0.000000 Al
0.500000 0.746779 0.253221 Al
0.000000 0.000000 0.500000 Al
0.249452 0.000000 0.750548 Al
0.253221 0.253221 0.500000 Al
0.000000 0.249452 0.750548 Al
0.500000 0.000000 0.500000 Al
0.750548 0.000000 0.750548 Al
0.746779 0.253221 0.500000 Al
0.500000 0.253221 0.746779 Al
0.000000 0.500000 0.500000 Al
0.253221 0.500000 0.746779 Al
0.253221 0.746779 0.500000 Al
0.000000 0.750548 0.750548 Al
0.746779 0.500000 0.746779 Al
0.746779 0.746779 0.500000 Al
0.500000 0.746779 0.746779 Al

0.000000 0.000000 0.000000
0.000000 0.000000 0.000000
0.000000 0.000000 0.000000
0.000000 0.000000 0.000000
0.000000 0.000000 0.000000
0.000000 0.000000 0.000000
0.000000 0.000000 0.000000
0.000000 0.000000 0.000000
0.000000 0.000000 0.000000
0.000000 0.000000 0.000000
0.000000 0.000000 0.000000
0.000000 0.000000 0.000000
0.000000 0.000000 0.000000
0.000000 0.000000 0.000000
0.000000 0.000000 0.000000
0.000000 0.000000 0.000000
0.000000 0.000000 0.000000
0.000000 0.000000 0.000000
0.000000 0.000000 0.000000
0.000000 0.000000 0.000000
0.000000 0.000000 0.000000
0.000000 0.000000 0.000000
0.000000 0.000000 0.000000
0.000000 0.000000 0.000000
0.000000 0.000000 0.000000
0.000000 0.000000 0.000000
0.000000 0.000000 0.000000
0.000000 0.000000 0.000000
0.000000 0.000000 0.000000
0.000000 0.000000 0.000000
0.000000 0.000000 0.000000
