ALGO = Normal
AMIX_MAG = 0.8
BMIX = 0.001
BMIX_MAG = 0.001
ENCUT = 360.6555
IBRION = 2
ISIF = 3
ISMEAR = 1
ISTART = 1
LCHARG = False
LWAVE = False
NELMDL = -6
NSW = 191
PREC = Accurate
SIGMA = 0.2
