Al30 Cu1
1.0
8.087040 0.000000 0.000000
0.000000 8.087040 0.000000
0.000000 0.000000 8.087040
Al Cu
30 1
direct
0.998589 0.997906 0.999185 Al
0.254369 0.010332 0.254381 Al
0.253108 0.250000 0.004921 Al
0.004260 0.250000 0.252944 Al
0.500467 0.003727 0.003924 Al
0.746076 0.003727 0.249532 Al
0.748793 0.250000 0.001207 Al
0.998589 0.502094 0.999185 Al
0.254369 0.489667 0.254381 Al
0.250354 0.750000 0.999172 Al
0.997870 0.750000 0.248874 Al
0.500467 0.496273 0.003924 Al
0.746076 0.496273 0.249532 Al
0.751263 0.750000 0.998737 Al
0.500949 0.750000 0.249051 Al
0.003543 0.004124 0.499858 Al
0.250142 0.004124 0.746457 Al
0.002112 0.250000 0.747888 Al
0.495619 0.010332 0.495631 Al
0.750815 0.997906 0.751411 Al
0.745079 0.250000 0.496892 Al
0.497056 0.250000 0.745740 Al
0.003543 0.495876 0.499858 Al
0.250142 0.495876 0.746457 Al
0.249659 0.750000 0.500341 Al
0.998376 0.750000 0.751624 Al
0.495619 0.489667 0.495631 Al
0.750815 0.502094 0.751411 Al
0.750828 0.750000 0.499646 Al
0.501126 0.750000 0.752130 Al
0.437430 0.250000 0.312570 Cu

0.000000 0.000000 0.000000
0.000000 0.000000 0.000000
0.000000 0.000000 0.000000
0.000000 0.000000 0.000000
0.000000 0.000000 0.000000
0.000000 0.000000 0.000000
0.000000 0.000000 0.000000
0.000000 0.000000 0.000000
0.000000 0.000000 0.000000
0.000000 0.000000 0.000000
0.000000 0.000000 0.000000
0.000000 0.000000 0.000000
0.000000 0.000000 0.000000
0.000000 0.000000 0.000000
0.000000 0.000000 0.000000
0.000000 0.000000 0.000000
0.000000 0.000000 0.000000
0.000000 0.000000 0.000000
0.000000 0.000000 0.000000
0.000000 0.000000 0.000000
0.000000 0.000000 0.000000
0.000000 0.000000 0.000000
0.000000 0.000000 0.000000
0.000000 0.000000 0.000000
0.000000 0.000000 0.000000
0.000000 0.000000 0.000000
0.000000 0.000000 0.000000
0.000000 0.000000 0.000000
0.000000 0.000000 0.000000
0.000000 0.000000 0.000000
0.000000 0.000000 0.000000
