Al31                                    
   1.00000000000000     
     8.0870519999999999    0.0000000000000000    0.0000000000000000
     0.0000000000000000    8.0870519999999999    0.0000000000000000
     0.0000000000000000    0.0000000000000000    8.0870519999999999
   Al
  31
Direct
  0.0000000000000000  0.0000000000000000  0.0000000000000000
  0.2494399999999999  0.0000000000000000  0.2494399999999999
  0.2494399999999999  0.2494399999999999  0.0000000000000000
  0.0000000000000000  0.2494399999999999  0.2494399999999999
  0.5000000000000000  0.0000000000000000  0.0000000000000000
  0.7505600000000001  0.0000000000000000  0.2494399999999999
  0.7505600000000001  0.2494399999999999  0.0000000000000000
  0.5000000000000000  0.2532690000000031  0.2532690000000031
  0.0000000000000000  0.5000000000000000  0.0000000000000000
  0.2532690000000031  0.5000000000000000  0.2532690000000031
  0.2494399999999999  0.7505600000000001  0.0000000000000000
  0.0000000000000000  0.7505600000000001  0.2494399999999999
  0.5000000000000000  0.5000000000000000  0.0000000000000000
  0.7467309999999969  0.5000000000000000  0.2532690000000031
  0.7505600000000001  0.7505600000000001  0.0000000000000000
  0.5000000000000000  0.7467309999999969  0.2532690000000031
  0.0000000000000000  0.0000000000000000  0.5000000000000000
  0.2494399999999999  0.0000000000000000  0.7505600000000001
  0.2532690000000031  0.2532690000000031  0.5000000000000000
  0.0000000000000000  0.2494399999999999  0.7505600000000001
  0.5000000000000000  0.0000000000000000  0.5000000000000000
  0.7505600000000001  0.0000000000000000  0.7505600000000001
  0.7467309999999969  0.2532690000000031  0.5000000000000000
  0.5000000000000000  0.2532690000000031  0.7467309999999969
  0.0000000000000000  0.5000000000000000  0.5000000000000000
  0.2532690000000031  0.5000000000000000  0.7467309999999969
  0.2532690000000031  0.7467309999999969  0.5000000000000000
  0.0000000000000000  0.7505600000000001  0.7505600000000001
  0.7467309999999969  0.5000000000000000  0.7467309999999969
  0.7467309999999969  0.7467309999999969  0.5000000000000000
  0.5000000000000000  0.7467309999999969  0.7467309999999969
 
  0.00000000E+00  0.00000000E+00  0.00000000E+00
  0.00000000E+00  0.00000000E+00  0.00000000E+00
  0.00000000E+00  0.00000000E+00  0.00000000E+00
  0.00000000E+00  0.00000000E+00  0.00000000E+00
  0.00000000E+00  0.00000000E+00  0.00000000E+00
  0.00000000E+00  0.00000000E+00  0.00000000E+00
  0.00000000E+00  0.00000000E+00  0.00000000E+00
  0.00000000E+00  0.00000000E+00  0.00000000E+00
  0.00000000E+00  0.00000000E+00  0.00000000E+00
  0.00000000E+00  0.00000000E+00  0.00000000E+00
  0.00000000E+00  0.00000000E+00  0.00000000E+00
  0.00000000E+00  0.00000000E+00  0.00000000E+00
  0.00000000E+00  0.00000000E+00  0.00000000E+00
  0.00000000E+00  0.00000000E+00  0.00000000E+00
  0.00000000E+00  0.00000000E+00  0.00000000E+00
  0.00000000E+00  0.00000000E+00  0.00000000E+00
  0.00000000E+00  0.00000000E+00  0.00000000E+00
  0.00000000E+00  0.00000000E+00  0.00000000E+00
  0.00000000E+00  0.00000000E+00  0.00000000E+00
  0.00000000E+00  0.00000000E+00  0.00000000E+00
  0.00000000E+00  0.00000000E+00  0.00000000E+00
  0.00000000E+00  0.00000000E+00  0.00000000E+00
  0.00000000E+00  0.00000000E+00  0.00000000E+00
  0.00000000E+00  0.00000000E+00  0.00000000E+00
  0.00000000E+00  0.00000000E+00  0.00000000E+00
  0.00000000E+00  0.00000000E+00  0.00000000E+00
  0.00000000E+00  0.00000000E+00  0.00000000E+00
  0.00000000E+00  0.00000000E+00  0.00000000E+00
  0.00000000E+00  0.00000000E+00  0.00000000E+00
  0.00000000E+00  0.00000000E+00  0.00000000E+00
  0.00000000E+00  0.00000000E+00  0.00000000E+00
