Al31
1.0
8.087052 0.000000 0.000000
0.000000 8.087052 0.000000
0.000000 0.000000 8.087052
Al
31
direct
0.999439 0.000000 0.999439 Al
0.250000 0.000000 0.250000 Al
0.250000 0.253272 0.003272 Al
0.003272 0.253272 0.250000 Al
0.500561 0.000000 0.999439 Al
0.750000 0.000000 0.250000 Al
0.750000 0.249439 0.999439 Al
0.496728 0.253272 0.250000 Al
0.003272 0.500000 0.003272 Al
0.250000 0.746728 0.003272 Al
0.003272 0.746728 0.250000 Al
0.496728 0.500000 0.003272 Al
0.750000 0.500000 0.250000 Al
0.750000 0.750561 0.999439 Al
0.496728 0.746728 0.250000 Al
0.999439 0.000000 0.500561 Al
0.250000 0.000000 0.750000 Al
0.250000 0.253272 0.496728 Al
0.999439 0.249439 0.750000 Al
0.500561 0.000000 0.500561 Al
0.750000 0.000000 0.750000 Al
0.750000 0.249439 0.500561 Al
0.500561 0.249439 0.750000 Al
0.003272 0.500000 0.496728 Al
0.250000 0.500000 0.750000 Al
0.250000 0.746728 0.496728 Al
0.999439 0.750561 0.750000 Al
0.750000 0.500000 0.750000 Al
0.750000 0.750561 0.500561 Al
0.500561 0.750561 0.750000 Al
0.496728 0.500000 0.496728 Al

0.000000 0.000000 0.000000
0.000000 0.000000 0.000000
0.000000 0.000000 0.000000
0.000000 0.000000 0.000000
0.000000 0.000000 0.000000
0.000000 0.000000 0.000000
0.000000 0.000000 0.000000
0.000000 0.000000 0.000000
0.000000 0.000000 0.000000
0.000000 0.000000 0.000000
0.000000 0.000000 0.000000
0.000000 0.000000 0.000000
0.000000 0.000000 0.000000
0.000000 0.000000 0.000000
0.000000 0.000000 0.000000
0.000000 0.000000 0.000000
0.000000 0.000000 0.000000
0.000000 0.000000 0.000000
0.000000 0.000000 0.000000
0.000000 0.000000 0.000000
0.000000 0.000000 0.000000
0.000000 0.000000 0.000000
0.000000 0.000000 0.000000
0.000000 0.000000 0.000000
0.000000 0.000000 0.000000
0.000000 0.000000 0.000000
0.000000 0.000000 0.000000
0.000000 0.000000 0.000000
0.000000 0.000000 0.000000
0.000000 0.000000 0.000000
0.000000 0.000000 0.000000
