Mg1 Al30                                
   1.00000000000000     
     8.0870519999999999    0.0000000000000000    0.0000000000000000
     0.0000000000000000    8.0870519999999999    0.0000000000000000
     0.0000000000000000    0.0000000000000000    8.0870519999999999
   Al   Mg
  30   1
Direct
  0.9989539999999977  0.0000000000000000  0.9989539999999977
  0.2492129999999975  0.0000000000000000  0.2492129999999975
  0.2515039999999971  0.2544019999999989  0.0054090000000002
  0.0054090000000002  0.2544019999999989  0.2515039999999971
  0.5001180000000005  0.0000000000000000  0.9966360000000023
  0.7538389999999993  0.0000000000000000  0.2503609999999981
  0.7509730000000019  0.2490549999999985  0.9979349999999982
  0.5002190000000013  0.2474860000000021  0.2454409999999996
  0.0043259999999989  0.5000000000000000  0.0043259999999989
  0.2515039999999971  0.7455980000000011  0.0054090000000002
  0.0054090000000002  0.7455980000000011  0.2515039999999971
  0.4987569999999977  0.5000000000000000  0.0031260000000017
  0.7525830000000013  0.5000000000000000  0.2475099999999983
  0.7509730000000019  0.7509450000000015  0.9979349999999982
  0.5002190000000013  0.7525139999999979  0.2454409999999996
  0.9966360000000023  0.0000000000000000  0.5001180000000005
  0.2503609999999981  0.0000000000000000  0.7538389999999993
  0.2454409999999996  0.2474860000000021  0.5002190000000013
  0.9979349999999982  0.2490549999999985  0.7509730000000019
  0.5017520000000033  0.0000000000000000  0.5017520000000033
  0.7504369999999980  0.0000000000000000  0.7504369999999980
  0.7496670000000023  0.2496099999999970  0.4999770000000012
  0.4999770000000012  0.2496099999999970  0.7496670000000023
  0.0031260000000017  0.5000000000000000  0.4987569999999977
  0.2475099999999983  0.5000000000000000  0.7525830000000013
  0.2454409999999996  0.7525139999999979  0.5002190000000013
  0.9979349999999982  0.7509450000000015  0.7509730000000019
  0.7509319999999988  0.5000000000000000  0.7509319999999988
  0.7496670000000023  0.7503900000000030  0.4999770000000012
  0.4999770000000012  0.7503900000000030  0.7496670000000023
  0.4892109999999974  0.5000000000000000  0.4892109999999974
 
  0.00000000E+00  0.00000000E+00  0.00000000E+00
  0.00000000E+00  0.00000000E+00  0.00000000E+00
  0.00000000E+00  0.00000000E+00  0.00000000E+00
  0.00000000E+00  0.00000000E+00  0.00000000E+00
  0.00000000E+00  0.00000000E+00  0.00000000E+00
  0.00000000E+00  0.00000000E+00  0.00000000E+00
  0.00000000E+00  0.00000000E+00  0.00000000E+00
  0.00000000E+00  0.00000000E+00  0.00000000E+00
  0.00000000E+00  0.00000000E+00  0.00000000E+00
  0.00000000E+00  0.00000000E+00  0.00000000E+00
  0.00000000E+00  0.00000000E+00  0.00000000E+00
  0.00000000E+00  0.00000000E+00  0.00000000E+00
  0.00000000E+00  0.00000000E+00  0.00000000E+00
  0.00000000E+00  0.00000000E+00  0.00000000E+00
  0.00000000E+00  0.00000000E+00  0.00000000E+00
  0.00000000E+00  0.00000000E+00  0.00000000E+00
  0.00000000E+00  0.00000000E+00  0.00000000E+00
  0.00000000E+00  0.00000000E+00  0.00000000E+00
  0.00000000E+00  0.00000000E+00  0.00000000E+00
  0.00000000E+00  0.00000000E+00  0.00000000E+00
  0.00000000E+00  0.00000000E+00  0.00000000E+00
  0.00000000E+00  0.00000000E+00  0.00000000E+00
  0.00000000E+00  0.00000000E+00  0.00000000E+00
  0.00000000E+00  0.00000000E+00  0.00000000E+00
  0.00000000E+00  0.00000000E+00  0.00000000E+00
  0.00000000E+00  0.00000000E+00  0.00000000E+00
  0.00000000E+00  0.00000000E+00  0.00000000E+00
  0.00000000E+00  0.00000000E+00  0.00000000E+00
  0.00000000E+00  0.00000000E+00  0.00000000E+00
  0.00000000E+00  0.00000000E+00  0.00000000E+00
  0.00000000E+00  0.00000000E+00  0.00000000E+00
