Al                                      
   1.00000000000000     
    10.9063935956658007    0.0000000000000000    0.0000000000000000
     0.0000000000000000   10.9063935956658007    0.0000000000000000
     0.0000000000000000    0.0000000000000000   10.9063935956658025
   Al   Mg
     1   106
Direct
  0.0000000000000000  0.0039959193006646  0.0039959193006646
  0.0000000000000000  0.0021688979098488  0.3313745050198376
  0.0000000000000000  0.0005249769354092  0.6662917275039378
  0.0000000000000000  0.3313745050198376  0.0021688979098488
  0.0000000000000000  0.3313083330488914  0.3313083330488914
  0.0000000000000000  0.3332152484108399  0.6663660206103658
  0.0000000000000000  0.6662917275039378  0.0005249769354092
  0.0000000000000000  0.6663660206103658  0.3332152484108399
  0.0000000000000000  0.6662390915045900  0.6662390915045900
  0.3334392243131933  0.0004825378310002  0.0004825378310002
  0.3330680258107865  0.0005434846224949  0.3333111618023056
  0.3333901707842676  0.0003035079329071  0.6661274841661143
  0.3330680258107865  0.3333111618023056  0.0005434846224949
  0.3326590847849894  0.3329986215678735  0.3329986215678735
  0.3331885336549741  0.3334387786741189  0.6662947022148887
  0.3333901707842676  0.6661274841661143  0.0003035079329071
  0.3331885336549741  0.6662947022148887  0.3334387786741189
  0.3333046022534943  0.6663518956670320  0.6663518956670320
  0.6665607756868068  0.0004825378310002  0.0004825378310002
  0.6669319741892135  0.0005434846224949  0.3333111618023056
  0.6666098292157324  0.0003035079329071  0.6661274841661143
  0.6669319741892135  0.3333111618023056  0.0005434846224949
  0.6673409152150106  0.3329986215678735  0.3329986215678735
  0.6668114663450259  0.3334387786741189  0.6662947022148887
  0.6666098292157324  0.6661274841661143  0.0003035079329071
  0.6668114663450259  0.6662947022148887  0.3334387786741189
  0.6666953977465057  0.6663518956670320  0.6663518956670320
  0.1664843156828683  0.0016728224264480  0.1675598034197910
  0.0000000000000000  0.1668703965204759  0.4988040936476144
  0.0000000000000000  0.1674031312275951  0.8342680565754911
  0.0000000000000000  0.4988040936476144  0.1668703965204759
  0.0000000000000000  0.4994880667197603  0.4994880667197603
  0.0000000000000000  0.4996770224079103  0.8334778927904106
  0.0000000000000000  0.8342680565754911  0.1674031312275951
  0.0000000000000000  0.8334778927904106  0.4996770224079103
  0.0000000000000000  0.8334105101201918  0.8334105101201918
  0.3327237300481313  0.1670890913779257  0.1670890913779257
  0.3331472748061864  0.1669362740912456  0.4996998656304105
  0.3336704879571427  0.1671255050570934  0.8329639950254691
  0.3331472748061864  0.4996998656304105  0.1669362740912456
  0.3331071961218369  0.4996140282367229  0.4996140282367229
  0.3332489032227404  0.4997139846555311  0.8334549599171452
  0.3336704879571427  0.8329639950254691  0.1671255050570934
  0.3332489032227404  0.8334549599171452  0.4997139846555311
  0.3334367997010813  0.8332506919837861  0.8332506919837861
  0.6672762699518687  0.1670890913779257  0.1670890913779257
  0.6668527251938136  0.1669362740912456  0.4996998656304105
  0.6663295120428573  0.1671255050570934  0.8329639950254691
  0.6668527251938136  0.4996998656304105  0.1669362740912456
  0.6668928038781631  0.4996140282367229  0.4996140282367229
  0.6667510967772595  0.4997139846555311  0.8334549599171452
  0.6663295120428573  0.8329639950254691  0.1671255050570934
  0.6667510967772595  0.8334549599171452  0.4997139846555311
  0.6665632002989187  0.8332506919837861  0.8332506919837861
  0.1662626080255389  0.0005706703105997  0.4991101510795334
  0.1671163496359440  0.0004627085559131  0.8331870876174949
  0.1650478652563939  0.3315754680766986  0.1668904016943409
  0.1661998794507445  0.3329287452243247  0.4990949523771761
  0.1665486376811435  0.3331979502915609  0.8337317655472590
  0.1664476327467559  0.6664322488344140  0.1670537080508470
  0.1665199326569746  0.6663597232260617  0.4995856346432606
  0.1667239329713605  0.6663022617711529  0.8333426327919908
  0.5000000000000000  0.0004563783206398  0.1670559506196742
  0.5000000000000000  0.0003574972715270  0.4996243191612592
  0.5000000000000000  0.0002801415049196  0.8333184173540068
  0.5000000000000000  0.3332309005032351  0.1669640219962283
  0.5000000000000000  0.3332744733470795  0.4994975881180572
  0.5000000000000000  0.3334907884879185  0.8335037881716308
  0.5000000000000000  0.6661467516417565  0.1669760065076048
  0.5000000000000000  0.6664362886833382  0.4997629562526519
  0.5000000000000000  0.6663498206293295  0.8333584693864117
  0.8335156843171316  0.0016728224264480  0.1675598034197910
  0.8337373919744611  0.0005706703105997  0.4991101510795334
  0.8328836503640560  0.0004627085559131  0.8331870876174949
  0.8349521347436061  0.3315754680766986  0.1668904016943409
  0.8338001205492556  0.3329287452243247  0.4990949523771761
  0.8334513623188565  0.3331979502915609  0.8337317655472590
  0.8335523672532441  0.6664322488344140  0.1670537080508470
  0.8334800673430255  0.6663597232260617  0.4995856346432606
  0.8332760670286394  0.6663022617711529  0.8333426327919908
  0.1664843156828683  0.1675598034197910  0.0016728224264480
  0.1650478652563939  0.1668904016943409  0.3315754680766986
  0.1664476327467559  0.1670537080508470  0.6664322488344140
  0.1662626080255389  0.4991101510795334  0.0005706703105997
  0.1661998794507445  0.4990949523771761  0.3329287452243247
  0.1665199326569746  0.4995856346432606  0.6663597232260617
  0.1671163496359440  0.8331870876174949  0.0004627085559131
  0.1665486376811435  0.8337317655472590  0.3331979502915609
  0.1667239329713605  0.8333426327919908  0.6663022617711529
  0.5000000000000000  0.1670559506196742  0.0004563783206398
  0.5000000000000000  0.1669640219962283  0.3332309005032351
  0.5000000000000000  0.1669760065076048  0.6661467516417565
  0.5000000000000000  0.4996243191612592  0.0003574972715270
  0.5000000000000000  0.4994975881180572  0.3332744733470795
  0.5000000000000000  0.4997629562526519  0.6664362886833382
  0.5000000000000000  0.8333184173540068  0.0002801415049196
  0.5000000000000000  0.8335037881716308  0.3334907884879185
  0.5000000000000000  0.8333584693864117  0.6663498206293295
  0.8335156843171316  0.1675598034197910  0.0016728224264480
  0.8349521347436061  0.1668904016943409  0.3315754680766986
  0.8335523672532441  0.1670537080508470  0.6664322488344140
  0.8337373919744611  0.4991101510795334  0.0005706703105997
  0.8338001205492556  0.4990949523771761  0.3329287452243247
  0.8334800673430255  0.4995856346432606  0.6663597232260617
  0.8328836503640560  0.8331870876174949  0.0004627085559131
  0.8334513623188565  0.8337317655472590  0.3331979502915609
  0.8332760670286394  0.8333426327919908  0.6663022617711529
 
  0.00000000E+00  0.00000000E+00  0.00000000E+00
  0.00000000E+00  0.00000000E+00  0.00000000E+00
  0.00000000E+00  0.00000000E+00  0.00000000E+00
  0.00000000E+00  0.00000000E+00  0.00000000E+00
  0.00000000E+00  0.00000000E+00  0.00000000E+00
  0.00000000E+00  0.00000000E+00  0.00000000E+00
  0.00000000E+00  0.00000000E+00  0.00000000E+00
  0.00000000E+00  0.00000000E+00  0.00000000E+00
  0.00000000E+00  0.00000000E+00  0.00000000E+00
  0.00000000E+00  0.00000000E+00  0.00000000E+00
  0.00000000E+00  0.00000000E+00  0.00000000E+00
  0.00000000E+00  0.00000000E+00  0.00000000E+00
  0.00000000E+00  0.00000000E+00  0.00000000E+00
  0.00000000E+00  0.00000000E+00  0.00000000E+00
  0.00000000E+00  0.00000000E+00  0.00000000E+00
  0.00000000E+00  0.00000000E+00  0.00000000E+00
  0.00000000E+00  0.00000000E+00  0.00000000E+00
  0.00000000E+00  0.00000000E+00  0.00000000E+00
  0.00000000E+00  0.00000000E+00  0.00000000E+00
  0.00000000E+00  0.00000000E+00  0.00000000E+00
  0.00000000E+00  0.00000000E+00  0.00000000E+00
  0.00000000E+00  0.00000000E+00  0.00000000E+00
  0.00000000E+00  0.00000000E+00  0.00000000E+00
  0.00000000E+00  0.00000000E+00  0.00000000E+00
  0.00000000E+00  0.00000000E+00  0.00000000E+00
  0.00000000E+00  0.00000000E+00  0.00000000E+00
  0.00000000E+00  0.00000000E+00  0.00000000E+00
  0.00000000E+00  0.00000000E+00  0.00000000E+00
  0.00000000E+00  0.00000000E+00  0.00000000E+00
  0.00000000E+00  0.00000000E+00  0.00000000E+00
  0.00000000E+00  0.00000000E+00  0.00000000E+00
  0.00000000E+00  0.00000000E+00  0.00000000E+00
  0.00000000E+00  0.00000000E+00  0.00000000E+00
  0.00000000E+00  0.00000000E+00  0.00000000E+00
  0.00000000E+00  0.00000000E+00  0.00000000E+00
  0.00000000E+00  0.00000000E+00  0.00000000E+00
  0.00000000E+00  0.00000000E+00  0.00000000E+00
  0.00000000E+00  0.00000000E+00  0.00000000E+00
  0.00000000E+00  0.00000000E+00  0.00000000E+00
  0.00000000E+00  0.00000000E+00  0.00000000E+00
  0.00000000E+00  0.00000000E+00  0.00000000E+00
  0.00000000E+00  0.00000000E+00  0.00000000E+00
  0.00000000E+00  0.00000000E+00  0.00000000E+00
  0.00000000E+00  0.00000000E+00  0.00000000E+00
  0.00000000E+00  0.00000000E+00  0.00000000E+00
  0.00000000E+00  0.00000000E+00  0.00000000E+00
  0.00000000E+00  0.00000000E+00  0.00000000E+00
  0.00000000E+00  0.00000000E+00  0.00000000E+00
  0.00000000E+00  0.00000000E+00  0.00000000E+00
  0.00000000E+00  0.00000000E+00  0.00000000E+00
  0.00000000E+00  0.00000000E+00  0.00000000E+00
  0.00000000E+00  0.00000000E+00  0.00000000E+00
  0.00000000E+00  0.00000000E+00  0.00000000E+00
  0.00000000E+00  0.00000000E+00  0.00000000E+00
  0.00000000E+00  0.00000000E+00  0.00000000E+00
  0.00000000E+00  0.00000000E+00  0.00000000E+00
  0.00000000E+00  0.00000000E+00  0.00000000E+00
  0.00000000E+00  0.00000000E+00  0.00000000E+00
  0.00000000E+00  0.00000000E+00  0.00000000E+00
  0.00000000E+00  0.00000000E+00  0.00000000E+00
  0.00000000E+00  0.00000000E+00  0.00000000E+00
  0.00000000E+00  0.00000000E+00  0.00000000E+00
  0.00000000E+00  0.00000000E+00  0.00000000E+00
  0.00000000E+00  0.00000000E+00  0.00000000E+00
  0.00000000E+00  0.00000000E+00  0.00000000E+00
  0.00000000E+00  0.00000000E+00  0.00000000E+00
  0.00000000E+00  0.00000000E+00  0.00000000E+00
  0.00000000E+00  0.00000000E+00  0.00000000E+00
  0.00000000E+00  0.00000000E+00  0.00000000E+00
  0.00000000E+00  0.00000000E+00  0.00000000E+00
  0.00000000E+00  0.00000000E+00  0.00000000E+00
  0.00000000E+00  0.00000000E+00  0.00000000E+00
  0.00000000E+00  0.00000000E+00  0.00000000E+00
  0.00000000E+00  0.00000000E+00  0.00000000E+00
  0.00000000E+00  0.00000000E+00  0.00000000E+00
  0.00000000E+00  0.00000000E+00  0.00000000E+00
  0.00000000E+00  0.00000000E+00  0.00000000E+00
  0.00000000E+00  0.00000000E+00  0.00000000E+00
  0.00000000E+00  0.00000000E+00  0.00000000E+00
  0.00000000E+00  0.00000000E+00  0.00000000E+00
  0.00000000E+00  0.00000000E+00  0.00000000E+00
  0.00000000E+00  0.00000000E+00  0.00000000E+00
  0.00000000E+00  0.00000000E+00  0.00000000E+00
  0.00000000E+00  0.00000000E+00  0.00000000E+00
  0.00000000E+00  0.00000000E+00  0.00000000E+00
  0.00000000E+00  0.00000000E+00  0.00000000E+00
  0.00000000E+00  0.00000000E+00  0.00000000E+00
  0.00000000E+00  0.00000000E+00  0.00000000E+00
  0.00000000E+00  0.00000000E+00  0.00000000E+00
  0.00000000E+00  0.00000000E+00  0.00000000E+00
  0.00000000E+00  0.00000000E+00  0.00000000E+00
  0.00000000E+00  0.00000000E+00  0.00000000E+00
  0.00000000E+00  0.00000000E+00  0.00000000E+00
  0.00000000E+00  0.00000000E+00  0.00000000E+00
  0.00000000E+00  0.00000000E+00  0.00000000E+00
  0.00000000E+00  0.00000000E+00  0.00000000E+00
  0.00000000E+00  0.00000000E+00  0.00000000E+00
  0.00000000E+00  0.00000000E+00  0.00000000E+00
  0.00000000E+00  0.00000000E+00  0.00000000E+00
  0.00000000E+00  0.00000000E+00  0.00000000E+00
  0.00000000E+00  0.00000000E+00  0.00000000E+00
  0.00000000E+00  0.00000000E+00  0.00000000E+00
  0.00000000E+00  0.00000000E+00  0.00000000E+00
  0.00000000E+00  0.00000000E+00  0.00000000E+00
  0.00000000E+00  0.00000000E+00  0.00000000E+00
  0.00000000E+00  0.00000000E+00  0.00000000E+00
  0.00000000E+00  0.00000000E+00  0.00000000E+00
