POSCAR_01:Al                            
   1.00000000000000     
    10.9063935957000009    0.0000000000000000    0.0000000000000000
     0.0000000000000000   10.9063935957000009    0.0000000000000000
     0.0000000000000000    0.0000000000000000   10.9063935957000009
   Al   Mg
     1   106
Direct
 -0.0025251134639595 -0.0009024771869603 -0.0135071472762597
 -0.0035561036273518 -0.0019540601553334  0.3488892634541653
  0.9983629295565639 -0.0001013004481031  0.6664346219300804
  0.9998820344494570  0.3309071109288814  0.0010526484144696
  1.0001772768571453  0.3301887779181223  0.3322360997537185
  0.9982652763151011  0.3372463177688664  0.6662211155407319
  0.9997682834778595  0.6687388606268742  0.0019418978253092
  0.9998273200748280  0.6691283022998369  0.3316430582666224
  0.9986159039947102  0.6644458945011020  0.6664387935315887
  0.3293377133777337  0.0014092988803445  0.0009816843777303
  0.3286614944568635  0.0017277841093705  0.3322715301910915
  0.3357020892596212 -0.0001989253683458  0.6662308892807811
  0.3322036991472797  0.3337615697936501  0.0001322738380098
  0.3323849378478910  0.3339596340025348  0.3335199602883166
  0.3349312426032353  0.3365024976233946  0.6664282069595854
  0.3320109850557491  0.6676120227010602  0.0017290234321384
  0.3314354704727718  0.6682045186115154  0.3317409348494145
  0.3335056244067317  0.6673470534017684  0.6662221859772154
  0.6672406905188251  0.0012815214563072  0.0019318359095672
  0.6675734790234369  0.0013724790096232  0.3316510294065271
  0.6628736754107089  0.0002092927608815  0.6664194146672702
  0.6660083711103907  0.3336037715942056  0.0017772893786510
  0.6665933644687504  0.3330297042089305  0.3316842742137206
  0.6657731978651383  0.3351274175643980  0.6662471738262805
  0.6655536893615510  0.6671214288865135  0.0017202816485683
  0.6658914487993282  0.6675319690720904  0.3319991220128385
  0.6649951936488659  0.6665678210918849  0.6661870457815962
  0.0835048589413765  0.0852417852310386  0.1690237526729981
  0.9978533751199714  0.1691354690386517  0.5043863502639827
  0.9975831326946590  0.1701092178100670  0.8283219797742453
  1.0001920596362108  0.4986524471042803  0.1668928817773952
  0.9990267860144056  0.5010710972897663  0.4977148151145794
  0.9990389016753657  0.5010632852798789  0.8350941316390214
  0.0038758662319369  0.8428774971081793  0.1672897536114188
  0.9986485338033426  0.8305517832907828  0.5036936793361689
  0.9988990735495706  0.8303773046990537  0.8299449471703195
  0.3238067941027062  0.1634564405037945  0.1668666095888232
  0.3363623648928552  0.1681285242528160  0.5036471383498425
  0.3359149856012570  0.1682505916847234  0.8298196476902537
  0.3308829404477930  0.4992767582640086  0.1668973580770386
  0.3332621695667012  0.5018929017629457  0.4986023366637407
  0.3334105970274963  0.5016867586134475  0.8343754875357232
  0.3295192208353556  0.8368215409132448  0.1668337096826996
  0.3327993247267340  0.8339123574130630  0.4984024981492886
  0.3333973557540964  0.8333974390042798  0.8341660278236308
  0.6675572475675784  0.1666388860598109  0.1670210275069899
  0.6653360261859071  0.1677167425189470  0.4979096004650700
  0.6648704893606924  0.1680493912972147  0.8345274219927072
  0.6661557117477089  0.5003114180908300  0.1670669577039914
  0.6658879542456108  0.5006683189545840  0.4981948015474626
  0.6655803448252336  0.5007557125620066  0.8346692956855197
  0.6672285114942700  0.8356459510195985  0.1670142200009052
  0.6646828773850378  0.8334261023643961  0.4986601197279009
  0.6643239135119027  0.8330737873377944  0.8340987870752907
  0.1676081090747601 -0.0006352059405332  0.5043842257331643
  0.1685109107788457 -0.0008911960547773  0.8283190775358710
  0.1620203612053885  0.3253267496505990  0.1669050825557105
  0.1666030515627257  0.3379275064592545  0.5036487173832042
  0.1667428907124048  0.3375130914098264  0.8298063549871353
  0.1651354562370835  0.6690762092778776  0.1669988509671551
  0.1660917410088554  0.6668723793934066  0.4978751493781852
  0.1664735457768988  0.6664084934516382  0.8345911385030290
  0.4971530312336527  0.0016757140592801  0.1668708851478474
  0.4995504357224101  0.0006345560151044  0.4977266780218694
  0.4995321155935009  0.0006042102800409  0.8350838594368791
  0.4976743339290435  0.3324107398845608  0.1669038160494176
  0.5003172445025451  0.3348699555930993  0.4985789737024491
  0.5001005475738015  0.3349773210659742  0.8343874974556431
  0.4986421928388703  0.6678446404693638  0.1670207226478309
  0.4990796240296160  0.6674663455386597  0.4982451812408357
  0.4991643266174532  0.6671434426766882  0.8346379103201202
  0.8413690429533287  0.0053935931897300  0.1673113089025605
  0.8289694055563654  0.0001697591796631  0.5037046848617384
  0.8288032660367816  0.0003796059782638  0.8299268963919675
  0.8352201475635367  0.3311025087857922  0.1668500231442036
  0.8323368225700717  0.3343677621789781  0.4983811901750111
  0.8318411960219785  0.3349840643358831  0.8341584207317164
  0.8341093169455066  0.6688059582856829  0.1670331330204770
  0.8318536313914755  0.6662522306692936  0.4986219271771383
  0.8315299156015877  0.6659131865477005  0.8341224053889015
  0.1687678328733890  0.1703671993150327 -0.0139110511686916
  0.1695094027571384  0.1710725601024787  0.3492894715565293
  0.1671464492577362  0.1686658619314989  0.6664612701861252
  0.1655122838399417  0.4989597921460684  0.0018694685500869
  0.1653475882376061  0.4987925554676851  0.3315306112457032
  0.1665812990666275  0.5033811259869176  0.6663667572136535
  0.1664098969864209  0.8357151789432148  0.0002560893569348
  0.1651223918035004  0.8375845020162642  0.3326613076164948
  0.1672504646286153  0.8311046361797628  0.6662664251075483
  0.4974447053418873  0.1670033006630446  0.0018443433641096
  0.4972338110178838  0.1668831916176951  0.3315433453688010
  0.5017953388899317  0.1681989489462547  0.6663682701539275
  0.4988399925580652  0.5004261910638307  0.0018335463524394
  0.4989455870359059  0.5005932214188192  0.3318042472010869
  0.4998663538819771  0.5014636811705471  0.6663178004535883
  0.4984167319239769  0.8349875055699062  0.0018434783769786
  0.4982562131641942  0.8353125190847637  0.3316570070666121
  0.4990125970458884  0.8332102118730312  0.6661496575705104
  0.8341024078185496  0.1680157968411979  0.0002511846899583
  0.8359941474806246  0.1666845548091760  0.3326600354458632
  0.8295895850841901  0.1687883918310553  0.6662792965421047
  0.8334299684124256  0.4999897855171633  0.0019263211194209
  0.8337283751392767  0.4998403442977993  0.3315841332197912
  0.8316216122901002  0.5006060391558110  0.6661572905272041
  0.8320031140061974  0.8335306453737131 -0.0001089981354419
  0.8328665703260305  0.8344574161550999  0.3334856592389155
  0.8301640859284495  0.8317134246148288  0.6666461376289786
 
  0.00000000E+00  0.00000000E+00  0.00000000E+00
  0.00000000E+00  0.00000000E+00  0.00000000E+00
  0.00000000E+00  0.00000000E+00  0.00000000E+00
  0.00000000E+00  0.00000000E+00  0.00000000E+00
  0.00000000E+00  0.00000000E+00  0.00000000E+00
  0.00000000E+00  0.00000000E+00  0.00000000E+00
  0.00000000E+00  0.00000000E+00  0.00000000E+00
  0.00000000E+00  0.00000000E+00  0.00000000E+00
  0.00000000E+00  0.00000000E+00  0.00000000E+00
  0.00000000E+00  0.00000000E+00  0.00000000E+00
  0.00000000E+00  0.00000000E+00  0.00000000E+00
  0.00000000E+00  0.00000000E+00  0.00000000E+00
  0.00000000E+00  0.00000000E+00  0.00000000E+00
  0.00000000E+00  0.00000000E+00  0.00000000E+00
  0.00000000E+00  0.00000000E+00  0.00000000E+00
  0.00000000E+00  0.00000000E+00  0.00000000E+00
  0.00000000E+00  0.00000000E+00  0.00000000E+00
  0.00000000E+00  0.00000000E+00  0.00000000E+00
  0.00000000E+00  0.00000000E+00  0.00000000E+00
  0.00000000E+00  0.00000000E+00  0.00000000E+00
  0.00000000E+00  0.00000000E+00  0.00000000E+00
  0.00000000E+00  0.00000000E+00  0.00000000E+00
  0.00000000E+00  0.00000000E+00  0.00000000E+00
  0.00000000E+00  0.00000000E+00  0.00000000E+00
  0.00000000E+00  0.00000000E+00  0.00000000E+00
  0.00000000E+00  0.00000000E+00  0.00000000E+00
  0.00000000E+00  0.00000000E+00  0.00000000E+00
  0.00000000E+00  0.00000000E+00  0.00000000E+00
  0.00000000E+00  0.00000000E+00  0.00000000E+00
  0.00000000E+00  0.00000000E+00  0.00000000E+00
  0.00000000E+00  0.00000000E+00  0.00000000E+00
  0.00000000E+00  0.00000000E+00  0.00000000E+00
  0.00000000E+00  0.00000000E+00  0.00000000E+00
  0.00000000E+00  0.00000000E+00  0.00000000E+00
  0.00000000E+00  0.00000000E+00  0.00000000E+00
  0.00000000E+00  0.00000000E+00  0.00000000E+00
  0.00000000E+00  0.00000000E+00  0.00000000E+00
  0.00000000E+00  0.00000000E+00  0.00000000E+00
  0.00000000E+00  0.00000000E+00  0.00000000E+00
  0.00000000E+00  0.00000000E+00  0.00000000E+00
  0.00000000E+00  0.00000000E+00  0.00000000E+00
  0.00000000E+00  0.00000000E+00  0.00000000E+00
  0.00000000E+00  0.00000000E+00  0.00000000E+00
  0.00000000E+00  0.00000000E+00  0.00000000E+00
  0.00000000E+00  0.00000000E+00  0.00000000E+00
  0.00000000E+00  0.00000000E+00  0.00000000E+00
  0.00000000E+00  0.00000000E+00  0.00000000E+00
  0.00000000E+00  0.00000000E+00  0.00000000E+00
  0.00000000E+00  0.00000000E+00  0.00000000E+00
  0.00000000E+00  0.00000000E+00  0.00000000E+00
  0.00000000E+00  0.00000000E+00  0.00000000E+00
  0.00000000E+00  0.00000000E+00  0.00000000E+00
  0.00000000E+00  0.00000000E+00  0.00000000E+00
  0.00000000E+00  0.00000000E+00  0.00000000E+00
  0.00000000E+00  0.00000000E+00  0.00000000E+00
  0.00000000E+00  0.00000000E+00  0.00000000E+00
  0.00000000E+00  0.00000000E+00  0.00000000E+00
  0.00000000E+00  0.00000000E+00  0.00000000E+00
  0.00000000E+00  0.00000000E+00  0.00000000E+00
  0.00000000E+00  0.00000000E+00  0.00000000E+00
  0.00000000E+00  0.00000000E+00  0.00000000E+00
  0.00000000E+00  0.00000000E+00  0.00000000E+00
  0.00000000E+00  0.00000000E+00  0.00000000E+00
  0.00000000E+00  0.00000000E+00  0.00000000E+00
  0.00000000E+00  0.00000000E+00  0.00000000E+00
  0.00000000E+00  0.00000000E+00  0.00000000E+00
  0.00000000E+00  0.00000000E+00  0.00000000E+00
  0.00000000E+00  0.00000000E+00  0.00000000E+00
  0.00000000E+00  0.00000000E+00  0.00000000E+00
  0.00000000E+00  0.00000000E+00  0.00000000E+00
  0.00000000E+00  0.00000000E+00  0.00000000E+00
  0.00000000E+00  0.00000000E+00  0.00000000E+00
  0.00000000E+00  0.00000000E+00  0.00000000E+00
  0.00000000E+00  0.00000000E+00  0.00000000E+00
  0.00000000E+00  0.00000000E+00  0.00000000E+00
  0.00000000E+00  0.00000000E+00  0.00000000E+00
  0.00000000E+00  0.00000000E+00  0.00000000E+00
  0.00000000E+00  0.00000000E+00  0.00000000E+00
  0.00000000E+00  0.00000000E+00  0.00000000E+00
  0.00000000E+00  0.00000000E+00  0.00000000E+00
  0.00000000E+00  0.00000000E+00  0.00000000E+00
  0.00000000E+00  0.00000000E+00  0.00000000E+00
  0.00000000E+00  0.00000000E+00  0.00000000E+00
  0.00000000E+00  0.00000000E+00  0.00000000E+00
  0.00000000E+00  0.00000000E+00  0.00000000E+00
  0.00000000E+00  0.00000000E+00  0.00000000E+00
  0.00000000E+00  0.00000000E+00  0.00000000E+00
  0.00000000E+00  0.00000000E+00  0.00000000E+00
  0.00000000E+00  0.00000000E+00  0.00000000E+00
  0.00000000E+00  0.00000000E+00  0.00000000E+00
  0.00000000E+00  0.00000000E+00  0.00000000E+00
  0.00000000E+00  0.00000000E+00  0.00000000E+00
  0.00000000E+00  0.00000000E+00  0.00000000E+00
  0.00000000E+00  0.00000000E+00  0.00000000E+00
  0.00000000E+00  0.00000000E+00  0.00000000E+00
  0.00000000E+00  0.00000000E+00  0.00000000E+00
  0.00000000E+00  0.00000000E+00  0.00000000E+00
  0.00000000E+00  0.00000000E+00  0.00000000E+00
  0.00000000E+00  0.00000000E+00  0.00000000E+00
  0.00000000E+00  0.00000000E+00  0.00000000E+00
  0.00000000E+00  0.00000000E+00  0.00000000E+00
  0.00000000E+00  0.00000000E+00  0.00000000E+00
  0.00000000E+00  0.00000000E+00  0.00000000E+00
  0.00000000E+00  0.00000000E+00  0.00000000E+00
  0.00000000E+00  0.00000000E+00  0.00000000E+00
  0.00000000E+00  0.00000000E+00  0.00000000E+00
  0.00000000E+00  0.00000000E+00  0.00000000E+00
