ENCUT = 313.02
IBRION = 5
NFREE = 2
NSW = 191
POTIM = 0.01
