Mg1 Al32                                
   1.00000000000000     
     8.0870400000000000    0.0000000000000000    0.0000000000000000
     0.0000000000000000    8.0870400000000000    0.0000000000000000
     0.0000000000000000    0.0000000000000000    8.0870400000000000
   Al   Mg
  32   1
Direct
  0.0018068852747912  0.0018068852747912  0.0018068852747912
  0.2513478896799058  0.0013251727063506  0.2513478896799058
  0.2513478896799058  0.2513478896799058  0.0013251727063506
  0.0013251727063506  0.2513478896799058  0.2513478896799058
  0.4967355372027353 -0.0079485353351186 -0.0079485353351186
  0.7403737624359876  0.0182212349217535  0.2449181605513820
  0.7403737624359876  0.2449181605513820  0.0182212349217535
  0.4904107085196173  0.2510487574595302  0.2510487574595302
 -0.0079485353351186  0.4967355372027353 -0.0079485353351186
  0.2510487574595302  0.4904107085196173  0.2510487574595302
  0.2449181605513820  0.7403737624359876  0.0182212349217535
  0.0182212349217535  0.7403737624359876  0.2449181605513820
  0.5063201162832039  0.5063201162832039 -0.0135229546166582
  0.7472437286219008  0.4858578178999211  0.2421909533636414
  0.7582608045372521  0.7582608045372521  0.0498995288939434
  0.4858578178999211  0.7472437286219008  0.2421909533636414
 -0.0079485353351186 -0.0079485353351186  0.4967355372027353
  0.2449181605513820  0.0182212349217535  0.7403737624359876
  0.2510487574595302  0.2510487574595302  0.4904107085196173
  0.0182212349217535  0.2449181605513820  0.7403737624359876
  0.5063201162832039 -0.0135229546166582  0.5063201162832039
  0.7582608045372521  0.0498995288939434  0.7582608045372521
  0.7472437286219008  0.2421909533636414  0.4858578178999211
  0.4858578178999211  0.2421909533636414  0.7472437286219008
 -0.0135229546166582  0.5063201162832039  0.5063201162832039
  0.2421909533636414  0.4858578178999211  0.7472437286219008
  0.2421909533636414  0.7472437286219008  0.4858578178999211
  0.0498995288939434  0.7582608045372521  0.7582608045372521
  0.5093660468569691  0.5093660468569691  0.5093660468569691
  0.7538181495196297  0.4142371662289895  0.7538181495196297
  0.7538181495196297  0.7538181495196297  0.4142371662289895
  0.4142371662289895  0.7538181495196297  0.7538181495196297
  0.7264352290552677  0.7264352290552677  0.7264352290552677
 
  0.00000000E+00  0.00000000E+00  0.00000000E+00
  0.00000000E+00  0.00000000E+00  0.00000000E+00
  0.00000000E+00  0.00000000E+00  0.00000000E+00
  0.00000000E+00  0.00000000E+00  0.00000000E+00
  0.00000000E+00  0.00000000E+00  0.00000000E+00
  0.00000000E+00  0.00000000E+00  0.00000000E+00
  0.00000000E+00  0.00000000E+00  0.00000000E+00
  0.00000000E+00  0.00000000E+00  0.00000000E+00
  0.00000000E+00  0.00000000E+00  0.00000000E+00
  0.00000000E+00  0.00000000E+00  0.00000000E+00
  0.00000000E+00  0.00000000E+00  0.00000000E+00
  0.00000000E+00  0.00000000E+00  0.00000000E+00
  0.00000000E+00  0.00000000E+00  0.00000000E+00
  0.00000000E+00  0.00000000E+00  0.00000000E+00
  0.00000000E+00  0.00000000E+00  0.00000000E+00
  0.00000000E+00  0.00000000E+00  0.00000000E+00
  0.00000000E+00  0.00000000E+00  0.00000000E+00
  0.00000000E+00  0.00000000E+00  0.00000000E+00
  0.00000000E+00  0.00000000E+00  0.00000000E+00
  0.00000000E+00  0.00000000E+00  0.00000000E+00
  0.00000000E+00  0.00000000E+00  0.00000000E+00
  0.00000000E+00  0.00000000E+00  0.00000000E+00
  0.00000000E+00  0.00000000E+00  0.00000000E+00
  0.00000000E+00  0.00000000E+00  0.00000000E+00
  0.00000000E+00  0.00000000E+00  0.00000000E+00
  0.00000000E+00  0.00000000E+00  0.00000000E+00
  0.00000000E+00  0.00000000E+00  0.00000000E+00
  0.00000000E+00  0.00000000E+00  0.00000000E+00
  0.00000000E+00  0.00000000E+00  0.00000000E+00
  0.00000000E+00  0.00000000E+00  0.00000000E+00
  0.00000000E+00  0.00000000E+00  0.00000000E+00
  0.00000000E+00  0.00000000E+00  0.00000000E+00
  0.00000000E+00  0.00000000E+00  0.00000000E+00
