# (written by ASE)
clear
variable dump_file string "/home/usitguest/MAST-structopt_VASP/MAST/structopt_stem/examples/STEM/Au309-rank0/LAMMPSFiles/rank-19/trj_lammps000001k9QsdI"
variable data_file string "/home/usitguest/MAST-structopt_VASP/MAST/structopt_stem/examples/STEM/Au309-rank0/LAMMPSFiles/rank-19/data_lammps000001dkN78a"
units metal 
boundary p p p 
atom_modify sort 0 0.0 

read_data /home/usitguest/MAST-structopt_VASP/MAST/structopt_stem/examples/STEM/Au309-rank0/LAMMPSFiles/rank-19/data_lammps000001dkN78a

### interactions 
pair_style lj/cut 10.0 
pair_coeff * * 0.4 2.5 10.0 
mass 1 196.9665
min_style cg
min_modify line quadratic 
thermo_style custom step temp press cpu pxx pyy pzz pxy pxz pyz ke pe etotal vol lx ly lz atoms
thermo_modify flush yes
thermo 1000

### run
fix fix_nve all nve
minimize 1e-8 1e-8 5000 10000
compute  pea all pe/atom 
dump dump_all all custom 2 /home/usitguest/MAST-structopt_VASP/MAST/structopt_stem/examples/STEM/Au309-rank0/LAMMPSFiles/rank-19/trj_lammps000001k9QsdI id type x y z c_pea 
run 1
print "__end_of_ase_invoked_calculation__"
log /dev/stdout
undump dump_all
