POSCAR_04:FCC Al endpoint 1                       
1.0000000000
7.9894616391 0.0000000000 0.0000000000
0.0000000000 7.9894616391 0.0000000000
0.0000000000 0.0000000000 7.9894616391
   Al
31 
D
0.0072161756 0.0072161756 0.5000000000
0.0008663037 0.5152627285 0.0000000000
0.0072161756 0.5089128567 0.5000000000
0.5152627285 0.0008663037 0.0000000000
0.5089128567 0.0072161756 0.5000000000
0.5152627285 0.5152627285 0.0000000000
0.5089128567 0.5089128567 0.5000000000
0.0008663037 0.0008663037 0.0000000000
0.2580645161 0.2580645161 0.5000000000
0.2580645161 0.7580645161 0.0000000000
0.2580645161 0.7580645161 0.5000000000
0.7580645161 0.2580645161 0.0000000000
0.7580645161 0.2580645161 0.5000000000
0.7580645161 0.7580645161 0.0000000000
0.7580645161 0.7580645161 0.5000000000
0.2580645161 0.0008663037 0.2571982124
0.2580645161 0.0008663037 0.7428017876
0.2580645161 0.5152627285 0.2571982124
0.2580645161 0.5152627285 0.7428017876
0.7580645161 0.0072161756 0.2508483406
0.7580645161 0.0072161756 0.7491516594
0.7580645161 0.5089128567 0.2508483406
0.7580645161 0.5089128567 0.7491516594
0.0008663037 0.2580645161 0.2571982124
0.0008663037 0.2580645161 0.7428017876
0.0072161756 0.7580645161 0.2508483406
0.0072161756 0.7580645161 0.7491516594
0.5152627285 0.2580645161 0.2571982124
0.5152627285 0.2580645161 0.7428017876
0.5089128567 0.7580645161 0.2508483406
0.5089128567 0.7580645161 0.7491516594
