System is 
MAGMOM = 1*5 106*5
NELECT = 1169
ENCUT = 409.5
LCLIMB = True
LCHARG = False
SPRING = -5
IMAGES = 1
PREC = Accurate
ISIF = 2
IBRION = 1
LREAL = Auto
ISPIN = 2
ISMEAR = 1
LWAVE = False
NPAR = 4
SIGMA = 0.2
POTIM = 0.5
NSW = 191
