Al30 Cu1                                
   1.00000000000000     
     8.0870400000000000    0.0000000000000000    0.0000000000000000
     0.0000000000000000    8.0870400000000000    0.0000000000000000
     0.0000000000000000    0.0000000000000000    8.0870400000000000
   Al   Cu
  30   1
Direct
  0.9994607393542558  0.9978938734160960  0.9982471944424092
  0.2543901052555165  0.0102923740755120  0.2543616808330981
  0.2528800622841657  0.2500000000000000  0.0038904603418762
  0.0052243715255841  0.2500000000000000  0.2532114018051814
  0.4995243290456525  0.0043045139756477  0.0033350428991152
  0.7466649571008848  0.0043045139756477  0.2504756709543474
  0.7474542197477821  0.2500000000000000  0.0025457802522177
  0.9994607393542558  0.5021061265839040  0.9982471944424092
  0.2543901052555165  0.4897076259244879  0.2543616808330981
  0.2481512364167636  0.7500000000000000  0.9971887014753310
  0.9997760748605309  0.7500000000000000  0.2511412824384036
  0.4995243290456525  0.4956954860243523  0.0033350428991152
  0.7466649571008848  0.4956954860243523  0.2504756709543474
  0.7518150742329853  0.7500000000000000 -0.0018150742329854
  0.5000025624412652  0.7500000000000000  0.2499974375587348
  0.0041018455322436  0.0035323550910093  0.5007891156105625
  0.2492108843894375  0.0035323550910093  0.7458981544677564
  0.0007372483354750  0.2500000000000000  0.7492627516645248
  0.4956383191669019  0.0102923740755120  0.4956098947444835
  0.7517528055575908  0.9978938734160960  0.7505392606457442
  0.7461095396581238  0.2500000000000000  0.4971199377158343
  0.4967885981948187  0.2500000000000000  0.7447756284744158
  0.0041018455322436  0.4964676449089907  0.5007891156105625
  0.2492108843894375  0.4964676449089907  0.7458981544677564
  0.2487321781160827  0.7500000000000000  0.5012678218839174
 -0.0010881496425902  0.7500000000000000  0.7510881496425902
  0.4956383191669019  0.4897076259244879  0.4956098947444835
  0.7517528055575908  0.5021061265839040  0.7505392606457442
  0.7528112985246690  0.7500000000000000  0.5018487635832363
  0.4988587175615963  0.7500000000000000  0.7502239251394691
  0.2502619969377722  0.2500000000000000  0.4997380030622278
 
  0.00000000E+00  0.00000000E+00  0.00000000E+00
  0.00000000E+00  0.00000000E+00  0.00000000E+00
  0.00000000E+00  0.00000000E+00  0.00000000E+00
  0.00000000E+00  0.00000000E+00  0.00000000E+00
  0.00000000E+00  0.00000000E+00  0.00000000E+00
  0.00000000E+00  0.00000000E+00  0.00000000E+00
  0.00000000E+00  0.00000000E+00  0.00000000E+00
  0.00000000E+00  0.00000000E+00  0.00000000E+00
  0.00000000E+00  0.00000000E+00  0.00000000E+00
  0.00000000E+00  0.00000000E+00  0.00000000E+00
  0.00000000E+00  0.00000000E+00  0.00000000E+00
  0.00000000E+00  0.00000000E+00  0.00000000E+00
  0.00000000E+00  0.00000000E+00  0.00000000E+00
  0.00000000E+00  0.00000000E+00  0.00000000E+00
  0.00000000E+00  0.00000000E+00  0.00000000E+00
  0.00000000E+00  0.00000000E+00  0.00000000E+00
  0.00000000E+00  0.00000000E+00  0.00000000E+00
  0.00000000E+00  0.00000000E+00  0.00000000E+00
  0.00000000E+00  0.00000000E+00  0.00000000E+00
  0.00000000E+00  0.00000000E+00  0.00000000E+00
  0.00000000E+00  0.00000000E+00  0.00000000E+00
  0.00000000E+00  0.00000000E+00  0.00000000E+00
  0.00000000E+00  0.00000000E+00  0.00000000E+00
  0.00000000E+00  0.00000000E+00  0.00000000E+00
  0.00000000E+00  0.00000000E+00  0.00000000E+00
  0.00000000E+00  0.00000000E+00  0.00000000E+00
  0.00000000E+00  0.00000000E+00  0.00000000E+00
  0.00000000E+00  0.00000000E+00  0.00000000E+00
  0.00000000E+00  0.00000000E+00  0.00000000E+00
  0.00000000E+00  0.00000000E+00  0.00000000E+00
  0.00000000E+00  0.00000000E+00  0.00000000E+00
