Al30 Cu1
1.0
8.087040 0.000000 0.000000
0.000000 8.087040 0.000000
0.000000 0.000000 8.087040
Al Cu
30 1
direct
-0.004179 -0.008298 -0.001102 Al
0.246184 -0.000629 0.248212 Al
0.246661 0.250000 0.001583 Al
0.003011 0.250000 0.248229 Al
0.503266 -0.004232 -0.003361 Al
0.753361 -0.004232 0.246734 Al
0.754001 0.250000 -0.004001 Al
-0.004179 0.508298 -0.001102 Al
0.246184 0.500629 0.248212 Al
0.246115 0.750000 -0.002353 Al
-0.003568 0.750000 0.246748 Al
0.503266 0.504232 -0.003361 Al
0.753361 0.504232 0.246734 Al
0.756592 0.750000 -0.006592 Al
0.500426 0.750000 0.249574 Al
0.001152 -0.000144 0.501529 Al
0.248471 -0.000144 0.748848 Al
-0.004361 0.250000 0.754361 Al
0.501788 -0.000629 0.503816 Al
0.751102 -0.008298 0.754179 Al
0.748417 0.250000 0.503339 Al
0.501771 0.250000 0.746989 Al
0.001152 0.500144 0.501529 Al
0.248471 0.500144 0.748848 Al
0.249466 0.750000 0.500534 Al
-0.007256 0.750000 0.757256 Al
0.501788 0.500629 0.503816 Al
0.751102 0.508298 0.754179 Al
0.752353 0.750000 0.503885 Al
0.503252 0.750000 0.753568 Al
0.250833 0.250000 0.499167 Cu

0.000000 0.000000 0.000000
0.000000 0.000000 0.000000
0.000000 0.000000 0.000000
0.000000 0.000000 0.000000
0.000000 0.000000 0.000000
0.000000 0.000000 0.000000
0.000000 0.000000 0.000000
0.000000 0.000000 0.000000
0.000000 0.000000 0.000000
0.000000 0.000000 0.000000
0.000000 0.000000 0.000000
0.000000 0.000000 0.000000
0.000000 0.000000 0.000000
0.000000 0.000000 0.000000
0.000000 0.000000 0.000000
0.000000 0.000000 0.000000
0.000000 0.000000 0.000000
0.000000 0.000000 0.000000
0.000000 0.000000 0.000000
0.000000 0.000000 0.000000
0.000000 0.000000 0.000000
0.000000 0.000000 0.000000
0.000000 0.000000 0.000000
0.000000 0.000000 0.000000
0.000000 0.000000 0.000000
0.000000 0.000000 0.000000
0.000000 0.000000 0.000000
0.000000 0.000000 0.000000
0.000000 0.000000 0.000000
0.000000 0.000000 0.000000
0.000000 0.000000 0.000000
