Al31
1.0
8.087054 0.000000 0.000000
0.000000 8.087054 0.000000
0.000000 0.000000 8.087054
Al
31
direct
-0.000519 0.000000 -0.000519 Al
0.250000 0.000000 0.250000 Al
0.250000 0.253264 0.003264 Al
0.003264 0.253264 0.250000 Al
0.500519 0.000000 -0.000519 Al
0.750000 0.000000 0.250000 Al
0.750000 0.249481 -0.000519 Al
0.496736 0.253264 0.250000 Al
0.003264 0.500000 0.003264 Al
0.250000 0.746736 0.003264 Al
0.003264 0.746736 0.250000 Al
0.496736 0.500000 0.003264 Al
0.750000 0.500000 0.250000 Al
0.750000 0.750519 -0.000519 Al
0.496736 0.746736 0.250000 Al
-0.000519 0.000000 0.500519 Al
0.250000 0.000000 0.750000 Al
0.250000 0.253264 0.496736 Al
-0.000519 0.249481 0.750000 Al
0.500519 0.000000 0.500519 Al
0.750000 0.000000 0.750000 Al
0.750000 0.249481 0.500519 Al
0.500519 0.249481 0.750000 Al
0.003264 0.500000 0.496736 Al
0.250000 0.500000 0.750000 Al
0.250000 0.746736 0.496736 Al
-0.000519 0.750519 0.750000 Al
0.496736 0.500000 0.496736 Al
0.750000 0.500000 0.750000 Al
0.750000 0.750519 0.500519 Al
0.500519 0.750519 0.750000 Al

0.000000 0.000000 0.000000
0.000000 0.000000 0.000000
0.000000 0.000000 0.000000
0.000000 0.000000 0.000000
0.000000 0.000000 0.000000
0.000000 0.000000 0.000000
0.000000 0.000000 0.000000
0.000000 0.000000 0.000000
0.000000 0.000000 0.000000
0.000000 0.000000 0.000000
0.000000 0.000000 0.000000
0.000000 0.000000 0.000000
0.000000 0.000000 0.000000
0.000000 0.000000 0.000000
0.000000 0.000000 0.000000
0.000000 0.000000 0.000000
0.000000 0.000000 0.000000
0.000000 0.000000 0.000000
0.000000 0.000000 0.000000
0.000000 0.000000 0.000000
0.000000 0.000000 0.000000
0.000000 0.000000 0.000000
0.000000 0.000000 0.000000
0.000000 0.000000 0.000000
0.000000 0.000000 0.000000
0.000000 0.000000 0.000000
0.000000 0.000000 0.000000
0.000000 0.000000 0.000000
0.000000 0.000000 0.000000
0.000000 0.000000 0.000000
0.000000 0.000000 0.000000
