Al30 Cu1                                
   1.00000000000000     
     8.0870400000000000    0.0000000000000000    0.0000000000000000
     0.0000000000000000    8.0870400000000000    0.0000000000000000
     0.0000000000000000    0.0000000000000000    8.0870400000000000
   Al   Cu
  30   1
Direct
 -0.0010351734247758 -0.0081866657550890 -0.0040628236254028
  0.2481480953223360 -0.0006618775255317  0.2461744616379212
  0.2482331405205240  0.2500000000000000  0.0029620286367539
  0.0015358495829113  0.2500000000000000  0.2466609972038324
  0.5015383037576324 -0.0001293672981766  0.0011111534830277
  0.7488888465169724 -0.0001293672981766  0.2484616962423676
  0.7543057000368443  0.2500000000000000 -0.0043057000368444
 -0.0010351734247758  0.5081866657550889 -0.0040628236254028
  0.2481480953223360  0.5006618775255317  0.2461744616379212
  0.2467906906227878  0.7500000000000000 -0.0035439352957110
 -0.0023295054331934  0.7500000000000000  0.2461638514336759
  0.5015383037576324  0.5001293672981766  0.0011111534830277
  0.7488888465169724  0.5001293672981766  0.2484616962423676
  0.7571069677323755  0.7500000000000000 -0.0071069677323754
  0.5005431509784642  0.7500000000000000  0.2494568490215358
 -0.0033562812358840 -0.0042194598815508  0.5032573922097644
  0.2467426077902357 -0.0042194598815508  0.7533562812358839
 -0.0039451774859416  0.2500000000000000  0.7539451774859416
  0.5038255383620789 -0.0006618775255317  0.5018519046776641
  0.7540628236254029 -0.0081866657550890  0.7510351734247758
  0.7470379713632461  0.2500000000000000  0.5017668594794760
  0.5033390027961676  0.2500000000000000  0.7484641504170887
 -0.0033562812358840  0.5042194598815508  0.5032573922097644
  0.2467426077902357  0.5042194598815508  0.7533562812358839
  0.2495214145412852  0.7500000000000000  0.5004785854587148
 -0.0064076361335144  0.7500000000000000  0.7564076361335144
  0.5038255383620789  0.5006618775255317  0.5018519046776641
  0.7540628236254029  0.5081866657550889  0.7510351734247758
  0.7535439352957111  0.7500000000000000  0.5032093093772122
  0.5038361485663242  0.7500000000000000  0.7523295054331933
  0.4992588255880117  0.2500000000000000  0.2507411744119883
 
  0.00000000E+00  0.00000000E+00  0.00000000E+00
  0.00000000E+00  0.00000000E+00  0.00000000E+00
  0.00000000E+00  0.00000000E+00  0.00000000E+00
  0.00000000E+00  0.00000000E+00  0.00000000E+00
  0.00000000E+00  0.00000000E+00  0.00000000E+00
  0.00000000E+00  0.00000000E+00  0.00000000E+00
  0.00000000E+00  0.00000000E+00  0.00000000E+00
  0.00000000E+00  0.00000000E+00  0.00000000E+00
  0.00000000E+00  0.00000000E+00  0.00000000E+00
  0.00000000E+00  0.00000000E+00  0.00000000E+00
  0.00000000E+00  0.00000000E+00  0.00000000E+00
  0.00000000E+00  0.00000000E+00  0.00000000E+00
  0.00000000E+00  0.00000000E+00  0.00000000E+00
  0.00000000E+00  0.00000000E+00  0.00000000E+00
  0.00000000E+00  0.00000000E+00  0.00000000E+00
  0.00000000E+00  0.00000000E+00  0.00000000E+00
  0.00000000E+00  0.00000000E+00  0.00000000E+00
  0.00000000E+00  0.00000000E+00  0.00000000E+00
  0.00000000E+00  0.00000000E+00  0.00000000E+00
  0.00000000E+00  0.00000000E+00  0.00000000E+00
  0.00000000E+00  0.00000000E+00  0.00000000E+00
  0.00000000E+00  0.00000000E+00  0.00000000E+00
  0.00000000E+00  0.00000000E+00  0.00000000E+00
  0.00000000E+00  0.00000000E+00  0.00000000E+00
  0.00000000E+00  0.00000000E+00  0.00000000E+00
  0.00000000E+00  0.00000000E+00  0.00000000E+00
  0.00000000E+00  0.00000000E+00  0.00000000E+00
  0.00000000E+00  0.00000000E+00  0.00000000E+00
  0.00000000E+00  0.00000000E+00  0.00000000E+00
  0.00000000E+00  0.00000000E+00  0.00000000E+00
  0.00000000E+00  0.00000000E+00  0.00000000E+00
